LAMMPS (10 Feb 2021)
# Input written to comply with LAMMPS 2017-08-11 00:00:00

# Atomic Configuration
units           metal
boundary        p p p
box tilt large
atom_style      charge
read_data       na3ocl_3V.lmp
Reading data file ...
  orthogonal box = (0.0000000 0.0000000 0.0000000) to (13.503000 13.503000 13.503000)
  1 by 1 by 1 MPI processor grid
  reading atoms ...
  129 atoms
  read_data CPU = 0.018 seconds

# Potential Setup
pair_style  buck/coul/long 12.0
pair_coeff * * 0.0 1.0 0.0
pair_coeff 1 1    1788.190000  0.159000   0.000000 # Na Na
pair_coeff 1 3    1170.410000  0.315000   0.000000 # Na Cl
pair_coeff 1 2     588.380000  0.338000   0.000000 # Na O
pair_coeff 3 3    1227.200000  0.321000  14.530000 # Cl Cl
pair_coeff 2 3    8286.910000  0.259000  62.200000 # Cl O
pair_coeff 2 2   22764.300000  0.149000  13.190000 # O  O
kspace_style pppm 1e-05

# General Setup
timestep        0.001

# Thermodynamic Information Output
thermo_style custom step temp epair emol etotal press lx ly lz fmax cpu cpuremain
thermo          1000

# Intial Atom Velocity
velocity all create 800 80800 dist gaussian rot yes

# Stage 0: npt_equilibriation
restart         0
fix             int all npt aniso 1.0 1.0 0.1 temp 800 800 0.5
run             50000
PPPM initialization ...
  using 12-bit tables for long-range coulomb (../kspace.cpp:339)
  G vector (1/distance) = 0.27805162
  grid = 15 15 15
  stencil order = 5
  estimated absolute RMS force accuracy = 6.1260485e-05
  estimated relative force accuracy = 4.2543052e-06
  using double precision KISS FFT
  3d grid and FFT values/proc = 10648 3375
Neighbor list info ...
  update every 1 steps, delay 10 steps, check yes
  max neighbors/atom: 2000, page size: 100000
  master list distance cutoff = 14
  ghost atom cutoff = 14
  binsize = 7, bins = 2 2 2
  1 neighbor lists, perpetual/occasional/extra = 1 0 0
  (1) pair buck/coul/long, perpetual
      attributes: half, newton on
      pair build: half/bin/atomonly/newton
      stencil: half/bin/3d/newton
      bin: standard
Per MPI rank memory allocation (min/avg/max) = 4.400 | 4.400 | 4.400 Mbytes
Step Temp E_pair E_mol TotEng Press Lx Ly Lz Fmax CPU CPULeft 
       0          800   -890.25354            0   -877.01731   -18943.152       13.503       13.503       13.503    5.4570963            0            0 
    1000    773.80152   -894.04399            0   -881.24121   -65.431581    13.398475    13.438629    13.530638    1.8663717    2.5335159    124.14228 
    2000    746.82327   -894.16773            0   -881.81131   -5157.5507    13.364247    13.584701    13.572339    1.9593609     5.061254     121.4701 
    3000    802.93985   -892.91661            0   -879.63174    7194.1627    13.211358    13.664883    13.245953    2.9971815     7.588042    118.87932 
    4000    838.18325   -894.29075            0   -880.42275   -1603.0033      13.3099    13.599247    13.408358    2.1647123    10.109895     116.2638 
    5000    710.61568   -893.99264            0   -882.23529    7046.7299    13.395378    13.374729    13.251856    2.7593754    12.638223    113.74401 
    6000     767.3502   -891.97822            0   -879.28218    1022.3313    13.443147    13.445154    13.419232    2.5719666    15.163879    111.20178 
    7000     774.1419    -893.0922            0   -880.28379    1691.8218    13.324327    13.410439    13.404079    2.5318273    17.689635    108.66491 
    8000      693.572   -894.35015            0    -882.8748    4114.5137    13.299833    13.305546     13.50019    2.2304705    20.279549    106.46765 
    9000    890.29736   -894.35399            0   -879.62375    2637.5919    13.386169    13.349726    13.522965    2.1508445    22.836422    104.03259 
   10000    830.70503   -892.91725            0   -879.17298    9168.8658     13.36549    13.195963    13.418018    2.1904008     25.38917    101.55668 
   11000    785.23574   -894.20204            0   -881.21008    1133.4633    13.430438    13.341164    13.468232    2.6320438    27.934168    99.039327 
   12000    915.45843   -894.89416            0   -879.74763    5407.6673    13.184134    13.220491    13.751205    1.9516363    30.487815    96.544751 
   13000    882.44838   -891.55737            0     -876.957    6051.8295    13.092559     13.38704    13.727544    2.5441257    33.055461     94.08093 
   14000    796.45554   -893.91273            0   -880.73514   -373.04428    13.397171     13.28304    13.656264    2.1863176    35.595675    91.531738 
   15000    774.34912   -894.22429            0   -881.41245   -1603.7081    13.501902    13.232862     13.65715    2.6607734    38.148184    89.012429 
   16000    906.27145   -893.09711            0   -878.10258   -3081.9253    13.408276    13.445728    13.687862    2.9525667    40.702351    86.492498 
   17000    742.37097   -892.97759            0   -880.69484    4407.9836    13.329981    13.102692    13.796224    2.1722184    43.254271    83.964175 
   18000    762.94711    -893.0172            0   -880.39401   -1169.0771    13.346293    13.450554     13.51968    1.9721256    45.818165    81.454517 
   19000    847.75316   -891.80014            0   -877.77382    14237.379    13.376249    13.273708    13.245797    1.8650105    48.381981    78.939023 
   20000    841.78542   -892.11336            0   -878.18577    308.55423    13.612275    13.246069    13.520656    3.4871247    50.940605    76.410909 
   21000    709.75767   -891.76101            0   -880.01786   -573.35807    13.655397    13.246462    13.465359    2.4505504    53.488351    73.864867 
   22000    767.49885   -893.78124            0   -881.08274   -5993.3041    13.430705    13.353117    13.821376    1.8855271     56.03701    71.319832 
   23000    661.36558   -895.14362            0   -884.20113    5377.1076    13.396067    13.320897    13.287895    1.8880057    58.587263    68.776353 
   24000    715.62415   -893.14006            0   -881.29985    1775.7962    13.419933    13.169043    13.621362    2.4398636    61.142598    66.237814 
   25000    858.88316   -893.32375            0   -879.11327     7662.544    13.150989    13.602965    13.363559    2.4801714    63.695819     63.69582 
   26000    761.83332   -893.32045            0   -880.71569    2362.1551    13.395258    13.482207    13.474822    2.7129447    66.261971    61.164897 
   27000    800.58147   -894.24024            0   -880.99438    4748.7549    13.238779    13.561949    13.371445    2.5974448    68.832984    58.635506 
   28000    808.84593   -892.63643            0   -879.25383    1655.9259    13.468831    13.533226    13.308467    2.3283048    71.407497    56.105891 
   29000     928.1084   -893.10349            0   -877.74766     3434.291    13.560999    13.298818    13.381068    2.4461515    73.960922     53.55791 
   30000    788.53876   -893.93597            0   -880.88936   -4598.7222     13.24745    13.766331    13.529289    2.0738585    76.528006    51.018671 
   31000    810.72499   -894.43074            0   -881.01705    9382.8776    13.567328    13.170149    13.186166    2.6974304     79.09049    48.474817 
   32000    842.60022   -892.31762            0   -878.37655    142.50499    13.253698      13.6917    13.379282    1.9797476    81.649455    45.927819 
   33000    836.37644     -894.591            0    -880.7529   -1338.3903     13.44084    13.442259    13.431501    2.8154278    84.217409    43.384726 
   34000    735.65364   -893.40704            0   -881.23543    632.53292    13.615856    13.471576    13.129136    2.1168938    86.760219    40.828338 
   35000    827.17486   -892.20699            0   -878.52114   -4629.6491    13.489446    13.251891     13.71574    2.5765879    89.324848    38.282078 
   36000    788.38031   -894.39503            0   -881.35104   -4324.7733    13.239732    13.551571    13.618601    2.4541902    91.862946    35.724479 
   37000    773.86824   -893.13891            0   -880.33503    5940.1739    13.328444    13.205574    13.546888    2.5827632    94.423492    33.175822 
   38000    848.93385   -894.11843            0   -880.07257   -1221.3231    13.431136    13.508355    13.391877    2.2164821     96.97166    30.622629 
   39000    807.11216   -892.45917            0   -879.10526   -608.76316    13.517008    13.381296    13.419784    2.7283074    99.515591      28.0685 
   40000    764.69253   -894.71799            0   -882.06592   -77.827258     13.21003    13.517831    13.581567     2.304465    102.07505    25.518763 
   41000    895.12469   -893.77573            0   -878.96563   -2970.3222    13.489238    13.684347    13.175976    2.1179476    104.63727    22.969157 
   42000    827.53678   -893.97938            0   -880.28754     1709.094    13.234822    13.406764    13.475553    2.8644366    107.18358     20.41592 
   43000    799.40973   -895.04207            0    -881.8156    2228.1683    13.189332    13.405626    13.659996    2.2851418       109.75    17.866279 
   44000    705.77574   -895.02548            0   -883.34821    7120.2971    13.157284    13.446975    13.385975    1.9696843     112.3167    15.315913 
   45000     744.4585   -892.65786            0   -880.34057    2999.9988    13.450059    13.342834    13.381806    1.9043807    114.86452    12.762725 
   46000    766.39197    -891.9808            0   -879.30061   -2684.7155    13.522153     13.17696    13.695224    2.2835575    117.41524    10.210021 
   47000    792.30087   -894.91426            0   -881.80541   -6000.9774    13.440952    13.381792    13.602527    1.8860086    119.96919    7.6576082 
   48000    812.25573   -893.29063            0   -879.85161   -6950.4501    13.339948    13.549843    13.808495    1.7266464    122.52823    5.1053431 
   49000     833.5607   -892.48941            0    -878.6979    4635.4598    13.588831    13.222798    13.441184    3.4519155     125.0889    2.5528347 
   50000    819.33202   -894.86532            0   -881.30922    7797.5995     13.45396    13.353653    13.253679     2.501343    127.63668            0 
Loop time of 127.637 on 1 procs for 50000 steps with 129 atoms

Performance: 33.846 ns/day, 0.709 hours/ns, 391.737 timesteps/s
99.9% CPU use with 1 MPI tasks x no OpenMP threads

MPI task timing breakdown:
Section |  min time  |  avg time  |  max time  |%varavg| %total
---------------------------------------------------------------
Pair    | 63.122     | 63.122     | 63.122     |   0.0 | 49.45
Kspace  | 29.979     | 29.979     | 29.979     |   0.0 | 23.49
Neigh   | 1.0153     | 1.0153     | 1.0153     |   0.0 |  0.80
Comm    | 0.84809    | 0.84809    | 0.84809    |   0.0 |  0.66
Output  | 0.00095892 | 0.00095892 | 0.00095892 |   0.0 |  0.00
Modify  | 32.484     | 32.484     | 32.484     |   0.0 | 25.45
Other   |            | 0.1876     |            |       |  0.15

Nlocal:        129.000 ave         129 max         129 min
Histogram: 1 0 0 0 0 0 0 0 0 0
Nghost:        3847.00 ave        3847 max        3847 min
Histogram: 1 0 0 0 0 0 0 0 0 0
Neighs:        40287.0 ave       40287 max       40287 min
Histogram: 1 0 0 0 0 0 0 0 0 0

Total # of neighbors = 40287
Ave neighs/atom = 312.30233
Neighbor list builds = 1000
Dangerous builds = 0

# Stage 1: nvt_equilibriation
unfix int
restart         0
fix             int all nvt temp 800 800 0.5
run             50000
PPPM initialization ...
  using 12-bit tables for long-range coulomb (../kspace.cpp:339)
  G vector (1/distance) = 0.27856857
  grid = 15 15 15
  stencil order = 5
  estimated absolute RMS force accuracy = 5.9523024e-05
  estimated relative force accuracy = 4.1336453e-06
  using double precision KISS FFT
  3d grid and FFT values/proc = 10648 3375
Per MPI rank memory allocation (min/avg/max) = 4.400 | 4.400 | 4.400 Mbytes
Step Temp E_pair E_mol TotEng Press Lx Ly Lz Fmax CPU CPULeft 
   50000    819.33202   -894.86542            0   -881.30933    7797.0885     13.45396    13.353653    13.253679    2.5013436            0            0 
   51000    844.29479   -893.26685            0   -879.29774    7256.3182     13.45396    13.353653    13.253679    2.6797921    1.9051819    93.353912 
   52000    818.74851   -893.02119            0   -879.47475    5649.4307     13.45396    13.353653    13.253679     2.095259    3.7837808     90.81074 
   53000    793.42528   -894.60773            0   -881.48027    2465.0971     13.45396    13.353653    13.253679    3.0468667    5.6608348    88.686412 
   54000    847.68658   -893.44371            0   -879.41848     2736.678     13.45396    13.353653    13.253679    2.1603717    7.5469298    86.789693 
   55000    808.55707   -893.67524            0   -880.29742    11020.329     13.45396    13.353653    13.253679    4.3960716    9.4287028    84.858334 
   56000    739.44475   -894.30245            0   -882.06811    5118.0205     13.45396    13.353653    13.253679    2.2258961    11.319181    83.007334 
   57000    849.56659   -893.03343            0    -878.9771    7373.0576     13.45396    13.353653    13.253679    3.1122972    13.196167    81.062175 
   58000    752.87591   -892.84301            0   -880.38645    8076.9685     13.45396    13.353653    13.253679    2.3519581    15.074912    79.143292 
   59000    725.52376    -893.4631            0   -881.45909    4929.5115     13.45396    13.353653    13.253679    2.7110236    16.954705    77.238101 
   60000    747.55005   -894.22798            0   -881.85954    5785.0467     13.45396    13.353653    13.253679    1.7527523    18.834018    75.336076 
   61000    870.70322   -893.28233            0   -878.87629    8585.2107     13.45396    13.353653    13.253679    2.4133019    20.715491    73.445831 
   62000    761.79314   -894.71871            0   -882.11462    4944.0134     13.45396    13.353653    13.253679    2.2923515    22.602309    71.573978 
   63000    758.42182   -893.77991            0    -881.2316    5221.3754     13.45396    13.353653    13.253679    1.6757565    24.482759    69.681701 
   64000    914.36134    -894.0433            0   -878.91492    6167.8625     13.45396    13.353653    13.253679     2.094281     26.36242     67.78908 
   65000      812.306   -894.47939            0   -881.03955    6285.0959     13.45396    13.353653    13.253679    3.0100951    28.239091    65.891214 
   66000     765.5211   -894.83634            0   -882.17057    4566.2426     13.45396    13.353653    13.253679    1.8461433     30.11618    63.996884 
   67000    823.11574   -892.76979            0    -879.1511    7612.4998     13.45396    13.353653    13.253679    2.5098476    31.997933    62.113634 
   68000    840.86538   -894.50491            0   -880.59254    3575.1015     13.45396    13.353653    13.253679     2.077064    33.879277    60.229826 
   69000    739.55043     -893.642            0   -881.40592    6272.0289     13.45396    13.353653    13.253679    2.6925175    35.760717    58.346434 
   70000    803.55485   -894.23901            0   -880.94395      4694.07     13.45396    13.353653    13.253679    1.9138219    37.639147     56.45872 
   71000    833.09979   -893.39381            0   -879.60993    6374.0104     13.45396    13.353653    13.253679    2.0982324    39.517781    54.572173 
   72000    771.00966   -895.50998            0    -882.7534    2798.8874     13.45396    13.353653    13.253679    2.0937208    41.399945     52.69084 
   73000    782.43908   -894.03569            0      -881.09    4052.2909     13.45396    13.353653    13.253679    2.5684544    43.276397    50.802727 
   74000    854.93795   -894.90826            0   -880.76305    7199.9392     13.45396    13.353653    13.253679    2.6890604    45.158491      48.9217 
   75000    706.21417   -893.38058            0   -881.69606    5185.5573     13.45396    13.353653    13.253679    2.3778966    47.038183    47.038183 
   76000      747.475   -894.65817            0   -882.29097    3969.0522     13.45396    13.353653    13.253679    2.4888956    48.916811     45.15398 
   77000    846.13287    -893.3743            0   -879.37478     12005.19     13.45396    13.353653    13.253679    3.8136003    50.796229    43.270862 
   78000    779.92554   -894.91368            0   -882.00958     1387.485     13.45396    13.353653    13.253679    2.7050463    52.677488    41.389455 
   79000    638.44964   -893.40902            0   -882.84568    6322.7398     13.45396    13.353653    13.253679    3.0867569    54.556721    39.506592 
   80000     709.5752   -892.09374            0    -880.3536    8508.9591     13.45396    13.353653    13.253679    2.5174744    56.434398    37.622932 
   81000    780.07017   -893.02587            0   -880.11937    6585.7631     13.45396    13.353653    13.253679    2.8608085    58.314049    35.740869 
   82000    760.71183   -895.33689            0   -882.75068     2979.422     13.45396    13.353653    13.253679    2.6205744     60.19291    33.858512 
   83000    863.34164   -894.92405            0    -880.6398    6683.5157     13.45396    13.353653    13.253679    2.0015083    62.078469    31.979818 
   84000    780.59756   -893.61065            0   -880.69543    5603.5956     13.45396    13.353653    13.253679    3.0389408    63.957147    30.097481 
   85000    814.82104   -894.51031            0   -881.02885     4975.284     13.45396    13.353653    13.253679    1.8404259    65.833594    28.214398 
   86000    781.48029   -894.10118            0   -881.17135    9070.7946     13.45396    13.353653    13.253679    3.7751553    67.711725    26.332338 
   87000    783.35207   -892.75489            0   -879.79409    6877.8855     13.45396    13.353653    13.253679    2.1071977    69.590325    24.450655 
   88000     834.2307   -894.27197            0   -880.46937    5321.3262     13.45396    13.353653    13.253679    2.3013365    71.524758    22.586766 
   89000    714.31422   -894.14997            0   -882.33143     5442.077     13.45396    13.353653    13.253679    2.2825176    73.403392    20.703521 
   90000    813.73948   -893.86968            0   -880.40612    9249.4501     13.45396    13.353653    13.253679     2.434235    75.281512    18.820378 
   91000    883.06849   -895.24229            0   -880.63166    7381.6785     13.45396    13.353653    13.253679    2.3452178    77.161264    16.937839 
   92000    748.87106   -894.41733            0   -882.02703    6150.8174     13.45396    13.353653    13.253679    2.0530659    79.040742     15.05538 
   93000    762.12965   -895.08385            0   -882.47418    5896.6302     13.45396    13.353653    13.253679     2.361498    80.922152    13.173374 
   94000    846.28495    -893.5031            0   -879.50107    6951.9006     13.45396    13.353653    13.253679    3.4070812    82.799597    11.290854 
   95000     768.6216   -895.08684            0   -882.36977    3561.9794     13.45396    13.353653    13.253679    1.9663816    84.678748    9.4087498 
   96000    752.47794   -894.87515            0   -882.42518    4198.5667     13.45396    13.353653    13.253679    1.9661788    86.563738    7.5272816 
   97000    749.79051   -892.79688            0   -880.39137     7372.398     13.45396    13.353653    13.253679    2.3426826    88.454943    5.6460602 
   98000     806.6684   -894.93003            0   -881.58346    3496.8934     13.45396    13.353653    13.253679    2.2544375    90.332438    3.7638516 
   99000    757.32742   -895.21071            0    -882.6805    6135.6586     13.45396    13.353653    13.253679      2.02882    92.217577    1.8819914 
  100000    849.29299   -894.24759            0   -880.19579    8136.0699     13.45396    13.353653    13.253679    2.4174998    94.096712            0 
Loop time of 94.0967 on 1 procs for 50000 steps with 129 atoms

Performance: 45.910 ns/day, 0.523 hours/ns, 531.368 timesteps/s
99.9% CPU use with 1 MPI tasks x no OpenMP threads

MPI task timing breakdown:
Section |  min time  |  avg time  |  max time  |%varavg| %total
---------------------------------------------------------------
Pair    | 63.628     | 63.628     | 63.628     |   0.0 | 67.62
Kspace  | 28.62      | 28.62      | 28.62      |   0.0 | 30.42
Neigh   | 0.71944    | 0.71944    | 0.71944    |   0.0 |  0.76
Comm    | 0.81897    | 0.81897    | 0.81897    |   0.0 |  0.87
Output  | 0.00091386 | 0.00091386 | 0.00091386 |   0.0 |  0.00
Modify  | 0.14592    | 0.14592    | 0.14592    |   0.0 |  0.16
Other   |            | 0.1633     |            |       |  0.17

Nlocal:        129.000 ave         129 max         129 min
Histogram: 1 0 0 0 0 0 0 0 0 0
Nghost:        3826.00 ave        3826 max        3826 min
Histogram: 1 0 0 0 0 0 0 0 0 0
Neighs:        40197.0 ave       40197 max       40197 min
Histogram: 1 0 0 0 0 0 0 0 0 0

Total # of neighbors = 40197
Ave neighs/atom = 311.60465
Neighbor list builds = 702
Dangerous builds = 0

# Stage 2: main_nvt_simulation
unfix int
dump     atom_info all custom 1 short.lammpstrj element x y z q id type vx vy vz
dump_modify     atom_info append yes
dump_modify     atom_info sort id
dump_modify     atom_info element Na O Cl
restart         0
fix             int all nvt temp 800 800 0.5
run             2000
PPPM initialization ...
  using 12-bit tables for long-range coulomb (../kspace.cpp:339)
  G vector (1/distance) = 0.27856857
  grid = 15 15 15
  stencil order = 5
  estimated absolute RMS force accuracy = 5.9523024e-05
  estimated relative force accuracy = 4.1336453e-06
  using double precision KISS FFT
  3d grid and FFT values/proc = 10648 3375
Per MPI rank memory allocation (min/avg/max) = 5.671 | 5.671 | 5.671 Mbytes
Step Temp E_pair E_mol TotEng Press Lx Ly Lz Fmax CPU CPULeft 
  100000    849.29299   -894.24759            0   -880.19579    8136.0699     13.45396    13.353653    13.253679    2.4174998            0            0 
  101000    775.33983   -895.39629            0   -882.56806    1702.8417     13.45396    13.353653    13.253679     1.865958    2.1310561    2.1310561 
  102000    768.89162   -895.14679            0   -882.42525    4680.4359     13.45396    13.353653    13.253679    2.0173586    4.2594781            0 
Loop time of 4.25949 on 1 procs for 2000 steps with 129 atoms

Performance: 40.568 ns/day, 0.592 hours/ns, 469.540 timesteps/s
99.3% CPU use with 1 MPI tasks x no OpenMP threads

MPI task timing breakdown:
Section |  min time  |  avg time  |  max time  |%varavg| %total
---------------------------------------------------------------
Pair    | 2.5591     | 2.5591     | 2.5591     |   0.0 | 60.08
Kspace  | 1.1434     | 1.1434     | 1.1434     |   0.0 | 26.84
Neigh   | 0.026577   | 0.026577   | 0.026577   |   0.0 |  0.62
Comm    | 0.032845   | 0.032845   | 0.032845   |   0.0 |  0.77
Output  | 0.48428    | 0.48428    | 0.48428    |   0.0 | 11.37
Modify  | 0.0061431  | 0.0061431  | 0.0061431  |   0.0 |  0.14
Other   |            | 0.007117   |            |       |  0.17

Nlocal:        129.000 ave         129 max         129 min
Histogram: 1 0 0 0 0 0 0 0 0 0
Nghost:        3838.00 ave        3838 max        3838 min
Histogram: 1 0 0 0 0 0 0 0 0 0
Neighs:        40152.0 ave       40152 max       40152 min
Histogram: 1 0 0 0 0 0 0 0 0 0

Total # of neighbors = 40152
Ave neighs/atom = 311.25581
Neighbor list builds = 26
Dangerous builds = 0

# Final Commands
variable final_energy equal etotal
print "final_energy: ${final_energy}"
final_energy: -882.425250570463
print "END_OF_COMP"
END_OF_COMP
Total wall time: 0:03:46
