LAMMPS (10 Feb 2021)
# Input written to comply with LAMMPS 2017-08-11 00:00:00

# Atomic Configuration
units           metal
boundary        p p p
box tilt large
atom_style      charge
read_data       na3ocl.lmp
Reading data file ...
  orthogonal box = (0.0000000 0.0000000 0.0000000) to (13.503000 13.503000 13.503000)
  1 by 1 by 1 MPI processor grid
  reading atoms ...
  129 atoms
  read_data CPU = 0.001 seconds

# Potential Setup
pair_style  buck/coul/long 12.0
pair_coeff * * 0.0 1.0 0.0
pair_coeff 1 1    1788.190000  0.159000   0.000000 # Na Na
pair_coeff 1 3    1170.410000  0.315000   0.000000 # Na Cl
pair_coeff 1 2     588.380000  0.338000   0.000000 # Na O
pair_coeff 3 3    1227.200000  0.321000  14.530000 # Cl Cl
pair_coeff 2 3    8286.910000  0.259000  62.200000 # Cl O
pair_coeff 2 2   22764.300000  0.149000  13.190000 # O  O
kspace_style pppm 1e-05

# General Setup
timestep        0.001

# Thermodynamic Information Output
thermo_style custom step temp epair emol etotal press lx ly lz fmax cpu cpuremain
thermo          1000

# Intial Atom Velocity
velocity all create 800 80800 dist gaussian rot yes

# Stage 0: npt_equilibriation
restart         0
fix             int all npt aniso 1.0 1.0 0.1 temp 800 800 0.5
run             50000
PPPM initialization ...
  using 12-bit tables for long-range coulomb (../kspace.cpp:339)
  G vector (1/distance) = 0.27805162
  grid = 15 15 15
  stencil order = 5
  estimated absolute RMS force accuracy = 6.1260485e-05
  estimated relative force accuracy = 4.2543052e-06
  using double precision KISS FFT
  3d grid and FFT values/proc = 10648 3375
Neighbor list info ...
  update every 1 steps, delay 10 steps, check yes
  max neighbors/atom: 2000, page size: 100000
  master list distance cutoff = 14
  ghost atom cutoff = 14
  binsize = 7, bins = 2 2 2
  1 neighbor lists, perpetual/occasional/extra = 1 0 0
  (1) pair buck/coul/long, perpetual
      attributes: half, newton on
      pair build: half/bin/atomonly/newton
      stencil: half/bin/3d/newton
      bin: standard
Per MPI rank memory allocation (min/avg/max) = 4.400 | 4.400 | 4.400 Mbytes
Step Temp E_pair E_mol TotEng Press Lx Ly Lz Fmax CPU CPULeft 
       0          800   -890.25354            0   -877.01731   -18943.152       13.503       13.503       13.503    5.4570963            0            0 
    1000    773.80152   -894.04399            0   -881.24121   -65.431581    13.398475    13.438629    13.530638    1.8663717    2.5194299    123.45207 
    2000    746.82327   -894.16773            0   -881.81131   -5157.5507    13.364247    13.584701    13.572339    1.9593609     5.050422    121.21015 
    3000    802.93985   -892.91661            0   -879.63174    7194.1627    13.211358    13.664883    13.245953    2.9971815     7.551511    118.30702 
    4000    838.18325   -894.29075            0   -880.42275   -1603.0033      13.3099    13.599247    13.408358    2.1647123    10.050358    115.57916 
    5000    710.61568   -893.99264            0   -882.23529    7046.7299    13.395378    13.374729    13.251856    2.7593754    12.545414    112.90873 
    6000     767.3502   -891.97822            0   -879.28218    1022.3313    13.443147    13.445154    13.419232    2.5719666    15.038741    110.28411 
    7000     774.1419    -893.0922            0   -880.28379    1691.8218    13.324327    13.410439    13.404079    2.5318273    17.535327    107.71701 
    8000      693.572   -894.35015            0    -882.8748    4114.5137    13.299833    13.305546     13.50019    2.2304705     20.03779     105.1984 
    9000    890.29736   -894.35399            0   -879.62375    2637.5919    13.386169    13.349726    13.522965    2.1508445    22.536394     102.6658 
   10000    830.70503   -892.91725            0   -879.17298    9168.8658     13.36549    13.195963    13.418018    2.1904008    25.030748    100.12299 
   11000    785.23574   -894.20204            0   -881.21008    1133.4633    13.430438    13.341164    13.468232    2.6320438    27.523441    97.583113 
   12000    915.45843   -894.89416            0   -879.74763    5407.6673    13.184134    13.220491    13.751205    1.9516363    30.020575    95.065154 
   13000    882.44838   -891.55737            0     -876.957    6051.8295    13.092559     13.38704    13.727544    2.5441257    32.508972    92.525538 
   14000    796.45554   -893.91273            0   -880.73514   -373.04428    13.397171     13.28304    13.656264    2.1863176    34.999575    89.998909 
   15000    774.34912   -894.22429            0   -881.41245   -1603.7081    13.501902    13.232862     13.65715    2.6607734    37.495808    87.490221 
   16000    906.27145   -893.09711            0   -878.10258   -3081.9253    13.408276    13.445728    13.687862    2.9525667    39.984679    84.967445 
   17000    742.37097   -892.97759            0   -880.69484    4407.9836    13.329981    13.102692    13.796224    2.1722184    42.472974    82.447538 
   18000    762.94711    -893.0172            0   -880.39401   -1169.0771    13.346293    13.450554     13.51968    1.9721256    44.967274    79.941822 
   19000    847.75316   -891.80014            0   -877.77382    14237.379    13.376249    13.273708    13.245797    1.8650105    47.460766    77.435988 
   20000    841.78542   -892.11336            0   -878.18577    308.55423    13.612275    13.246069    13.520656    3.4871247    49.949153    74.923731 
   21000    709.75767   -891.76101            0   -880.01786   -573.35807    13.655397    13.246462    13.465359    2.4505504    52.442315     72.42034 
   22000    767.49885   -893.78124            0   -881.08274   -5993.3041    13.430705    13.353117    13.821376    1.8855271    54.936204    69.918806 
   23000    661.36558   -895.14362            0   -884.20113    5377.1076    13.396067    13.320897    13.287895    1.8880057    57.430297    67.418176 
   24000    715.62415   -893.14006            0   -881.29985    1775.7962    13.419933    13.169043    13.621362    2.4398636    59.934734    64.929296 
   25000    858.88316   -893.32375            0   -879.11327     7662.544    13.150989    13.602965    13.363559    2.4801714    62.428007    62.428007 
   26000    761.83332   -893.32045            0   -880.71569    2362.1551    13.395258    13.482207    13.474822    2.7129447    64.923354    59.929251 
   27000    800.58147   -894.24024            0   -880.99438    4748.7549    13.238779    13.561949    13.371445    2.5974448    67.421212    57.432885 
   28000    808.84593   -892.63643            0   -879.25383    1655.9259    13.468831    13.533226    13.308467    2.3283048    69.917375    54.935081 
   29000     928.1084   -893.10349            0   -877.74766     3434.291    13.560999    13.298818    13.381068    2.4461515    72.412942    52.436958 
   30000    788.53876   -893.93597            0   -880.88936   -4598.7222     13.24745    13.766331    13.529289    2.0738585    74.900989    49.933993 
   31000    810.72499   -894.43074            0   -881.01705    9382.8776    13.567328    13.170149    13.186166    2.6974304    77.398756    47.437947 
   32000    842.60022   -892.31762            0   -878.37655    142.50499    13.253698      13.6917    13.379282    1.9797476    79.902696    44.945267 
   33000    836.37644     -894.591            0    -880.7529   -1338.3903     13.44084    13.442259    13.431501    2.8154278    82.397613    42.447256 
   34000    735.65364   -893.40704            0   -881.23543    632.53292    13.615856    13.471576    13.129136    2.1168938     84.89611    39.951111 
   35000    827.17486   -892.20699            0   -878.52114   -4629.6491    13.489446    13.251891     13.71574    2.5765879    87.390749    37.453179 
   36000    788.38031   -894.39503            0   -881.35104   -4324.7733    13.239732    13.551571    13.618601    2.4541902    89.890299    34.957339 
   37000    773.86824   -893.13891            0   -880.33503    5940.1739    13.328444    13.205574    13.546888    2.5827632    92.381685     32.45843 
   38000    848.93385   -894.11843            0   -880.07257   -1221.3231    13.431136    13.508355    13.391877    2.2164821    94.878003    29.961475 
   39000    807.11216   -892.45917            0   -879.10526   -608.76316    13.517008    13.381296    13.419784    2.7283074    97.371787    27.463838 
   40000    764.69253   -894.71799            0   -882.06592   -77.827258     13.21003    13.517831    13.581567     2.304465    99.876354    24.969089 
   41000    895.12469   -893.77573            0   -878.96563   -2970.3222    13.489238    13.684347    13.175976    2.1179476    102.36956    22.471366 
   42000    827.53678   -893.97938            0   -880.28754     1709.094    13.234822    13.406764    13.475553    2.8644366    104.86045     19.97342 
   43000    799.40973   -895.04207            0    -881.8156    2228.1683    13.189332    13.405626    13.659996    2.2851418    107.35394    17.476222 
   44000    705.77574   -895.02548            0   -883.34821    7120.2971    13.157284    13.446975    13.385975    1.9696843    109.86227    14.981219 
   45000     744.4585   -892.65786            0   -880.34057    2999.9988    13.450059    13.342834    13.381806    1.9043807    112.34972    12.483302 
   46000    766.39197    -891.9808            0   -879.30061   -2684.7155    13.522153     13.17696    13.695224    2.2835575    114.84365    9.9864048 
   47000    792.30087   -894.91426            0   -881.80541   -6000.9774    13.440952    13.381792    13.602527    1.8860086    117.33349    7.4893718 
   48000    812.25573   -893.29063            0   -879.85161   -6950.4501    13.339948    13.549843    13.808495    1.7266464    119.84706    4.9936277 
   49000     833.5607   -892.48941            0    -878.6979    4635.4598    13.588831    13.222798    13.441184    3.4519155     122.3386    2.4967061 
   50000    819.33202   -894.86532            0   -881.30922    7797.5995     13.45396    13.353653    13.253679     2.501343    124.83082            0 
Loop time of 124.831 on 1 procs for 50000 steps with 129 atoms

Performance: 34.607 ns/day, 0.694 hours/ns, 400.542 timesteps/s
99.9% CPU use with 1 MPI tasks x no OpenMP threads

MPI task timing breakdown:
Section |  min time  |  avg time  |  max time  |%varavg| %total
---------------------------------------------------------------
Pair    | 61.888     | 61.888     | 61.888     |   0.0 | 49.58
Kspace  | 29.087     | 29.087     | 29.087     |   0.0 | 23.30
Neigh   | 1.012      | 1.012      | 1.012      |   0.0 |  0.81
Comm    | 0.85079    | 0.85079    | 0.85079    |   0.0 |  0.68
Output  | 0.0010328  | 0.0010328  | 0.0010328  |   0.0 |  0.00
Modify  | 31.802     | 31.802     | 31.802     |   0.0 | 25.48
Other   |            | 0.19       |            |       |  0.15

Nlocal:        129.000 ave         129 max         129 min
Histogram: 1 0 0 0 0 0 0 0 0 0
Nghost:        3847.00 ave        3847 max        3847 min
Histogram: 1 0 0 0 0 0 0 0 0 0
Neighs:        40287.0 ave       40287 max       40287 min
Histogram: 1 0 0 0 0 0 0 0 0 0

Total # of neighbors = 40287
Ave neighs/atom = 312.30233
Neighbor list builds = 1000
Dangerous builds = 0

# Stage 1: nvt_equilibriation
unfix int
restart         0
fix             int all nvt temp 800 800 0.5
run             50000
PPPM initialization ...
  using 12-bit tables for long-range coulomb (../kspace.cpp:339)
  G vector (1/distance) = 0.27856857
  grid = 15 15 15
  stencil order = 5
  estimated absolute RMS force accuracy = 5.9523024e-05
  estimated relative force accuracy = 4.1336453e-06
  using double precision KISS FFT
  3d grid and FFT values/proc = 10648 3375
Per MPI rank memory allocation (min/avg/max) = 4.400 | 4.400 | 4.400 Mbytes
Step Temp E_pair E_mol TotEng Press Lx Ly Lz Fmax CPU CPULeft 
   50000    819.33202   -894.86542            0   -881.30933    7797.0885     13.45396    13.353653    13.253679    2.5013436            0            0 
   51000    844.29479   -893.26685            0   -879.29774    7256.3182     13.45396    13.353653    13.253679    2.6797921     1.862792    91.276809 
   52000    818.74851   -893.02119            0   -879.47475    5649.4307     13.45396    13.353653    13.253679     2.095259     3.707947    88.990728 
   53000    793.42528   -894.60773            0   -881.48027    2465.0971     13.45396    13.353653    13.253679    3.0468667    5.5506279    86.959853 
   54000    847.68658   -893.44371            0   -879.41848     2736.678     13.45396    13.353653    13.253679    2.1603717     7.396194    85.056242 
   55000    808.55707   -893.67524            0   -880.29742    11020.329     13.45396    13.353653    13.253679    4.3960716    9.2428589     83.18573 
   56000    739.44475   -894.30245            0   -882.06811    5118.0205     13.45396    13.353653    13.253679    2.2258961    11.088504    81.315704 
   57000    849.56659   -893.03343            0    -878.9771    7373.0576     13.45396    13.353653    13.253679    3.1122972     12.92444    79.392994 
   58000    752.87591   -892.84301            0   -880.38645    8076.9685     13.45396    13.353653    13.253679    2.3519581    14.764721     77.51479 
   59000    725.52376    -893.4631            0   -881.45909    4929.5115     13.45396    13.353653    13.253679    2.7110236    16.619129    75.709365 
   60000    747.55005   -894.22798            0   -881.85954    5785.0467     13.45396    13.353653    13.253679    1.7527523    18.480659     73.92264 
   61000    870.70322   -893.28233            0   -878.87629    8585.2107     13.45396    13.353653    13.253679    2.4133019    20.322117    72.051142 
   62000    761.79314   -894.71871            0   -882.11462    4944.0134     13.45396    13.353653    13.253679    2.2923515    22.159667    70.172282 
   63000    758.42182   -893.77991            0    -881.2316    5221.3754     13.45396    13.353653    13.253679    1.6757565    24.000631    68.309488 
   64000    914.36134    -894.0433            0   -878.91492    6167.8625     13.45396    13.353653    13.253679     2.094281    25.838845    66.442744 
   65000      812.306   -894.47939            0   -881.03955    6285.0959     13.45396    13.353653    13.253679    3.0100951    27.678434    64.583015 
   66000     765.5211   -894.83634            0   -882.17057    4566.2426     13.45396    13.353653    13.253679    1.8461433    29.516103    62.721721 
   67000    823.11574   -892.76979            0    -879.1511    7612.4998     13.45396    13.353653    13.253679    2.5098476    31.355433    60.866431 
   68000    840.86538   -894.50491            0   -880.59254    3575.1015     13.45396    13.353653    13.253679     2.077064    33.196925    59.016757 
   69000    739.55043     -893.642            0   -881.40592    6272.0289     13.45396    13.353653    13.253679    2.6925175    35.041367    57.172758 
   70000    803.55485   -894.23901            0   -880.94395      4694.07     13.45396    13.353653    13.253679    1.9138219    36.881397    55.322096 
   71000    833.09979   -893.39381            0   -879.60993    6374.0104     13.45396    13.353653    13.253679    2.0982324    38.720763    53.471531 
   72000    771.00966   -895.50998            0    -882.7534    2798.8874     13.45396    13.353653    13.253679    2.0937208    40.560747     51.62277 
   73000    782.43908   -894.03569            0      -881.09    4052.2909     13.45396    13.353653    13.253679    2.5684544    42.398412     49.77205 
   74000    854.93795   -894.90826            0   -880.76305    7199.9392     13.45396    13.353653    13.253679    2.6890604    44.238866    47.925439 
   75000    706.21417   -893.38058            0   -881.69606    5185.5573     13.45396    13.353653    13.253679    2.3778966    46.078703    46.078704 
   76000      747.475   -894.65817            0   -882.29097    3969.0522     13.45396    13.353653    13.253679    2.4888956    47.916424    44.230546 
   77000    846.13287    -893.3743            0   -879.37478     12005.19     13.45396    13.353653    13.253679    3.8136003    49.756381    42.385066 
   78000    779.92554   -894.91368            0   -882.00958     1387.485     13.45396    13.353653    13.253679    2.7050463    51.598488    40.541669 
   79000    638.44964   -893.40902            0   -882.84568    6322.7398     13.45396    13.353653    13.253679    3.0867569    53.437591    38.696187 
   80000     709.5752   -892.09374            0    -880.3536    8508.9591     13.45396    13.353653    13.253679    2.5174744     55.27518    36.850121 
   81000    780.07017   -893.02587            0   -880.11937    6585.7631     13.45396    13.353653    13.253679    2.8608085    57.116595    35.006946 
   82000    760.71183   -895.33689            0   -882.75068     2979.422     13.45396    13.353653    13.253679    2.6205744    58.956032    33.162769 
   83000    863.34164   -894.92405            0    -880.6398    6683.5157     13.45396    13.353653    13.253679    2.0015083    60.801719    31.322098 
   84000    780.59756   -893.61065            0   -880.69543    5603.5956     13.45396    13.353653    13.253679    3.0389408    62.638612    29.476994 
   85000    814.82104   -894.51031            0   -881.02885     4975.284     13.45396    13.353653    13.253679    1.8404259    64.479317    27.633993 
   86000    781.48029   -894.10118            0   -881.17135    9070.7946     13.45396    13.353653    13.253679    3.7751553    66.318126    25.790383 
   87000    783.35207   -892.75489            0   -879.79409    6877.8855     13.45396    13.353653    13.253679    2.1071977    68.156795    23.946982 
   88000     834.2307   -894.27197            0   -880.46937    5321.3262     13.45396    13.353653    13.253679    2.3013365    69.997838    22.104581 
   89000    714.31422   -894.14997            0   -882.33143     5442.077     13.45396    13.353653    13.253679    2.2825176    71.837513    20.261863 
   90000    813.73948   -893.86968            0   -880.40612    9249.4501     13.45396    13.353653    13.253679     2.434235    73.690406    18.422601 
   91000    883.06849   -895.24229            0   -880.63166    7381.6785     13.45396    13.353653    13.253679    2.3452178    75.528592    16.579447 
   92000    748.87106   -894.41733            0   -882.02703    6150.8174     13.45396    13.353653    13.253679    2.0530659    77.368016    14.736765 
   93000    762.12965   -895.08385            0   -882.47418    5896.6302     13.45396    13.353653    13.253679     2.361498    79.204736    12.893794 
   94000    846.28495    -893.5031            0   -879.50107    6951.9006     13.45396    13.353653    13.253679    3.4070812    81.044528    11.051527 
   95000     768.6216   -895.08684            0   -882.36977    3561.9794     13.45396    13.353653    13.253679    1.9663816    82.885442    9.2094937 
   96000    752.47794   -894.87515            0   -882.42518    4198.5667     13.45396    13.353653    13.253679    1.9661788    84.725456     7.367431 
   97000    749.79051   -892.79688            0   -880.39137     7372.398     13.45396    13.353653    13.253679    2.3426826    86.571634     5.525849 
   98000     806.6684   -894.93003            0   -881.58346    3496.8934     13.45396    13.353653    13.253679    2.2544375    88.411682    3.6838201 
   99000    757.32742   -895.21071            0    -882.6805    6135.6586     13.45396    13.353653    13.253679      2.02882    90.253375    1.8419056 
  100000    849.29299   -894.24759            0   -880.19579    8136.0699     13.45396    13.353653    13.253679    2.4174998    92.092436            0 
Loop time of 92.0924 on 1 procs for 50000 steps with 129 atoms

Performance: 46.909 ns/day, 0.512 hours/ns, 542.933 timesteps/s
99.9% CPU use with 1 MPI tasks x no OpenMP threads

MPI task timing breakdown:
Section |  min time  |  avg time  |  max time  |%varavg| %total
---------------------------------------------------------------
Pair    | 61.899     | 61.899     | 61.899     |   0.0 | 67.21
Kspace  | 28.352     | 28.352     | 28.352     |   0.0 | 30.79
Neigh   | 0.71955    | 0.71955    | 0.71955    |   0.0 |  0.78
Comm    | 0.81553    | 0.81553    | 0.81553    |   0.0 |  0.89
Output  | 0.00097442 | 0.00097442 | 0.00097442 |   0.0 |  0.00
Modify  | 0.14537    | 0.14537    | 0.14537    |   0.0 |  0.16
Other   |            | 0.1606     |            |       |  0.17

Nlocal:        129.000 ave         129 max         129 min
Histogram: 1 0 0 0 0 0 0 0 0 0
Nghost:        3826.00 ave        3826 max        3826 min
Histogram: 1 0 0 0 0 0 0 0 0 0
Neighs:        40197.0 ave       40197 max       40197 min
Histogram: 1 0 0 0 0 0 0 0 0 0

Total # of neighbors = 40197
Ave neighs/atom = 311.60465
Neighbor list builds = 702
Dangerous builds = 0

# Stage 2: main_nvt_simulation
unfix int
dump     atom_info all custom 1000 main_nvt_simulation-trajectory.lammpstrj element x y z q id type vx vy vz
dump_modify     atom_info append yes
dump_modify     atom_info sort id
dump_modify     atom_info element Na Cl O
restart         0
fix             int all nvt temp 800 800 0.5
run             2000000
PPPM initialization ...
  using 12-bit tables for long-range coulomb (../kspace.cpp:339)
  G vector (1/distance) = 0.27856857
  grid = 15 15 15
  stencil order = 5
  estimated absolute RMS force accuracy = 5.9523024e-05
  estimated relative force accuracy = 4.1336453e-06
  using double precision KISS FFT
  3d grid and FFT values/proc = 10648 3375
Per MPI rank memory allocation (min/avg/max) = 5.671 | 5.671 | 5.671 Mbytes
Step Temp E_pair E_mol TotEng Press Lx Ly Lz Fmax CPU CPULeft 
  100000    849.29299   -894.24759            0   -880.19579    8136.0699     13.45396    13.353653    13.253679    2.4174998            0            0 
  101000    775.33983   -895.39629            0   -882.56806    1702.8417     13.45396    13.353653    13.253679     1.865958     1.855943    3710.0319 
  102000    768.89162   -895.14679            0   -882.42525    4680.4359     13.45396    13.353653    13.253679    2.0173586    3.7113688    3707.6586 
  103000    804.88895   -894.05779            0   -880.74066    9074.0625     13.45396    13.353653    13.253679    2.3955932    5.5647099    3704.2425 
  104000    751.41353   -893.77308            0   -881.34072    6417.0895     13.45396    13.353653    13.253679    3.0687646     7.419358    3702.2596 
  105000    777.62579   -895.72905            0     -882.863    2028.4866     13.45396    13.353653    13.253679    2.2006005     9.274904    3700.6871 
  106000    856.35567   -893.91486            0    -879.7462    7465.5633     13.45396    13.353653    13.253679    2.2469543    11.129721    3698.7776 
  107000    801.04292   -894.18587            0   -880.93238    3088.0779     13.45396    13.353653    13.253679    2.0548403    12.982409    3696.2773 
  108000    788.73101   -895.64119            0    -882.5914    3429.0102     13.45396    13.353653    13.253679    2.5597226    14.840001    3695.1602 
  109000    884.32004   -892.28536            0   -877.65402    6245.7477     13.45396    13.353653    13.253679    2.5360655    16.696788    3693.7007 
  110000    814.61794   -894.77303            0   -881.29493    6258.0003     13.45396    13.353653    13.253679     2.029471    18.551809    3691.8101 
  111000    758.34331   -894.82469            0   -882.27767    6176.2261     13.45396    13.353653    13.253679    2.1614606    20.404131    3689.4379 
  112000    828.24916   -893.09225            0   -879.38862    6941.7519     13.45396    13.353653    13.253679    2.2618882    22.258466     3687.486 
  113000    765.07591   -895.36313            0   -882.70472    1512.5886     13.45396    13.353653    13.253679    2.1215551    24.109759    3685.0839 
  114000    768.98061   -894.45929            0   -881.73628    7300.2892     13.45396    13.353653    13.253679    1.8893166    25.961522    3682.8275 
  115000    854.12446   -894.03866            0   -879.90692    7377.6146     13.45396    13.353653    13.253679    2.2428704    27.815667    3680.9399 
  116000    733.45449   -895.56283            0   -883.42761    3277.9999     13.45396    13.353653    13.253679    4.4046275    29.738638    3687.5912 
  117000    772.57216   -894.39586            0   -881.61342    4349.5833     13.45396    13.353653    13.253679    2.2698096    31.601014    3686.1653 
  118000    790.01374   -893.62572            0   -880.55471    4988.8376     13.45396    13.353653    13.253679    2.2441923    33.459405    3684.2524 
  119000    771.65958   -896.06118            0   -883.29384    3337.6222     13.45396    13.353653    13.253679    1.9819582     35.31864     3682.433 
  120000    752.53262   -894.39046            0   -881.93958    5795.1531     13.45396    13.353653    13.253679    2.2172448    37.177121     3680.535 
  121000    860.01042   -894.77501            0   -880.54588      4993.85     13.45396    13.353653    13.253679     1.754838    39.035618    3678.6424 
  122000    823.59483   -896.35921            0   -882.73259    4362.3726     13.45396    13.353653    13.253679    1.9197081    40.894841    3676.8181 
  123000    728.95662   -894.34206            0   -882.28126    8142.5679     13.45396    13.353653    13.253679    2.3945764    42.752374    3674.8454 
  124000    853.85545   -894.74324            0   -880.61595    8314.1256     13.45396    13.353653    13.253679    2.0314811     44.61204     3673.058 
  125000    821.04306   -895.09295            0   -881.50855    2026.9357     13.45396    13.353653    13.253679    1.8833545    46.465176    3670.7489 
  126000    701.81763   -894.75555            0   -883.14377    4136.7361     13.45396    13.353653    13.253679      2.46363    48.324871    3668.9729 
  127000    858.28324   -893.97527            0   -879.77472     6323.239     13.45396    13.353653    13.253679    2.0593266    50.178544    3666.7507 
  128000    796.96481   -894.71997            0   -881.53395    3686.0854     13.45396    13.353653    13.253679    2.2307257    52.032898    3664.6027 
  129000    743.76462   -896.40826            0   -884.10245    3422.7504     13.45396    13.353653    13.253679    2.2128545    53.885571    3662.3608 
  130000    854.50287   -895.99664            0   -881.85864    5575.4798     13.45396    13.353653    13.253679     2.184828    55.734193    3659.8787 
  131000    877.30533   -894.37808            0    -879.8628    9017.9385     13.45396    13.353653    13.253679    2.0381085    57.592122    3658.0287 
  132000    725.84628   -894.47914            0    -882.4698    3178.0923     13.45396    13.353653    13.253679     1.960113    59.445828    3655.9185 
  133000    730.69776   -893.49396            0   -881.40434    5254.9257     13.45396    13.353653    13.253679    2.4337266    61.306845    3654.2596 
  134000    890.80011   -895.09348            0   -880.35493    6339.9075     13.45396    13.353653    13.253679    2.3033457    63.164947    3652.4202 
  135000    738.31928   -894.15458            0   -881.93886    4681.2953     13.45396    13.353653    13.253679    2.3070067    65.019309    3650.3698 
  136000    840.53287   -894.96402            0   -881.05715    4169.9924     13.45396    13.353653    13.253679    1.9625207    66.871757    3648.2259 
  137000    829.82527   -893.03442            0   -879.30471    8484.9788     13.45396    13.353653    13.253679    2.1617672    68.727197    3646.2565 
  138000    677.76558   -893.71449            0   -882.50065    3275.2885     13.45396    13.353653    13.253679     2.447119    70.581164     3644.217 
  139000    820.29583     -894.717            0   -881.14496    8001.4895     13.45396    13.353653    13.253679    2.0330131    72.438557    3642.3592 
  140000    772.88165   -892.13725            0   -879.34969    6298.0646     13.45396    13.353653    13.253679    2.4985545    74.294248    3640.4182 
  141000    761.28218   -895.39975            0   -882.80411    5535.2663     13.45396    13.353653    13.253679    2.1261955    76.150685    3638.5169 
  142000    804.16624   -894.08076            0   -880.77559    5275.5079     13.45396    13.353653    13.253679    2.4599044    78.006596    3636.5933 
  143000    879.56426   -894.82345            0    -880.2708    5000.8447     13.45396    13.353653    13.253679    2.3030932    79.860914    3634.6002 
  144000    840.06741   -895.09094            0   -881.19177    3553.2168     13.45396    13.353653    13.253679    2.3471993    81.714635     3632.587 
  145000     820.1968   -894.58634            0   -881.01594    4311.4761     13.45396    13.353653    13.253679    2.6871945     83.56877    3630.5988 
  146000    808.23869    -894.2804            0   -880.90785    2807.3095     13.45396    13.353653    13.253679    2.2981731    85.430292    3628.9303 
  147000    838.37432   -894.23064            0   -880.35949    6036.5319     13.45396    13.353653    13.253679    2.5044058    87.285657    3626.9977 
  148000    772.96252   -894.27428            0   -881.48538    9181.1299     13.45396    13.353653    13.253679    2.4886061    89.143791    3625.1809 
  149000    731.86562    -894.9833            0   -882.87436    5032.5051     13.45396    13.353653    13.253679    1.9468147     90.99656    3623.1487 
  150000    790.63723   -892.52755            0   -879.44622    6394.7463     13.45396    13.353653    13.253679    2.3003188    92.862959    3621.6554 
  151000    746.19006   -894.12798            0   -881.78205    5384.9474     13.45396    13.353653    13.253679    2.5286566    94.719418    3619.7676 
  152000    811.95354   -893.82933            0   -880.39532    6539.7378     13.45396    13.353653    13.253679    2.4796778    96.575288    3617.8589 
  153000    884.26219   -893.99781            0   -879.36743    6836.9904     13.45396    13.353653    13.253679    2.3338605    98.431864    3615.9781 
  154000    840.46703   -895.80784            0   -881.90206    6876.1549     13.45396    13.353653    13.253679    2.0772773    100.29137    3614.2038 
  155000     872.0002   -893.90822            0   -879.48072    6262.7155     13.45396    13.353653    13.253679    2.7411818    102.14975    3612.3866 
  156000    902.10463   -893.54773            0   -878.62214    6946.1442     13.45396    13.353653    13.253679    2.7722545     104.0081    3610.5668 
  157000    796.45197   -895.50789            0   -882.33036    1978.4777     13.45396    13.353653    13.253679     2.440472    105.87091    3608.8978 
  158000    854.26067    -894.3956            0    -880.2616    7778.8239     13.45396    13.353653    13.253679    1.9401575    107.72319    3606.8696 
  159000    734.48223    -892.4087            0   -880.25647    8324.4746     13.45396    13.353653    13.253679    2.0397031    109.58018    3605.0022 
  160000    774.27358   -895.39341            0   -882.58283    5482.6034     13.45396    13.353653    13.253679    2.1256419     111.4348    3603.0584 
  161000    827.43127   -893.91662            0   -880.22652     4905.465     13.45396    13.353653    13.253679    2.7894562    113.29083    3601.1626 
  162000     877.2241   -895.23299            0   -880.71905    6164.8058     13.45396    13.353653    13.253679    2.3967113    115.14842    3599.3168 
  163000    817.59715   -894.73767            0   -881.21028    2948.5485     13.45396    13.353653    13.253679     2.167651    117.00579    3597.4636 
  164000    794.25926   -893.81745            0   -880.67619    5191.8392     13.45396    13.353653    13.253679    2.7688551    118.86148    3595.5599 
  165000    891.70406    -893.5539            0   -878.80039    5621.9225     13.45396    13.353653    13.253679    3.5587064    120.71397     3593.562 
  166000    734.25092   -894.16622            0   -882.01782    5594.6197     13.45396    13.353653    13.253679    2.3763871    122.58003    3591.9663 
  167000    783.98248   -893.49143            0    -880.5202    4405.3812     13.45396    13.353653    13.253679    3.0865232    124.43199    3589.9558 
  168000    990.42975   -892.79802            0   -876.41107    6251.6386     13.45396    13.353653    13.253679    1.9501233    126.28708    3588.0388 
  169000    787.87679   -893.74122            0   -880.70556      7006.24     13.45396    13.353653    13.253679    2.9352523    128.13876    3586.0281 
  170000    747.92667   -894.45818            0   -882.08351     6901.899     13.45396    13.353653    13.253679    2.1203433    129.99264    3584.0828 
  171000    817.43891   -892.82888            0   -879.30411    8288.2116     13.45396    13.353653    13.253679    2.5130435    131.84865    3582.1979 
  172000    777.20365   -894.76628            0   -881.90721    4164.3633     13.45396    13.353653    13.253679    2.1186834    133.70637    3580.3595 
  173000    848.90818    -895.7943            0   -881.74886    2971.6273     13.45396    13.353653    13.253679    1.5482709    135.56162    3578.4553 
  174000    816.89348   -893.14092            0   -879.62517    4597.3684     13.45396    13.353653    13.253679    2.5286269    137.41776    3576.5758 
  175000    765.78095   -895.44267            0    -882.7726    1694.4773     13.45396    13.353653    13.253679    2.5096828    139.27396    3574.6984 
  176000    799.76327   -894.43532            0     -881.203     4047.341     13.45396    13.353653    13.253679    2.6379208    141.12779    3572.7615 
  177000    754.45571   -892.84573            0   -880.36304    7997.3027     13.45396    13.353653    13.253679    3.4900621    142.98361    3570.8765 
  178000    809.80001   -894.90416            0   -881.50578     5760.385     13.45396    13.353653    13.253679    2.1113362    144.83795    3568.9557 
  179000    852.41773   -893.83151            0   -879.72801    2495.4669     13.45396    13.353653    13.253679    1.8813401     146.6917    3567.0223 
  180000    782.03444   -892.18765            0   -879.24866    8411.2563     13.45396    13.353653    13.253679    2.8820696    148.55113    3565.2272 
  181000    718.83367   -893.98819            0   -882.09488    5087.2486     13.45396    13.353653    13.253679    2.6870894    150.40613    3563.3255 
  182000    864.68461   -894.19007            0    -879.8836    6401.7814     13.45396    13.353653    13.253679    2.4943612     152.2628    3561.4641 
  183000    873.45108   -894.21755            0   -879.76604    2538.2867     13.45396    13.353653    13.253679    1.8640289    154.12746    3559.7873 
  184000    744.00868    -893.4652            0   -881.15536    8535.7532     13.45396    13.353653    13.253679    2.4610744     155.9848    3557.9391 
  185000    826.24991   -894.61501            0   -880.94446     5251.111     13.45396    13.353653    13.253679     1.967204    157.84013    3556.0454 
  186000    908.22596   -894.90974            0   -879.88287    4391.3591     13.45396    13.353653    13.253679    2.4127077    159.69207    3554.0769 
  187000    840.43578    -895.5224            0   -881.61714     2784.452     13.45396    13.353653    13.253679    2.2691242     161.5502    3552.2476 
  188000    757.85797   -894.74107            0   -882.20208     6489.479     13.45396    13.353653    13.253679    2.6681625    163.40723    3550.3934 
  189000    858.09084   -893.63508            0   -879.43771    8448.6638     13.45396    13.353653    13.253679    2.1952626    165.26467    3548.5482 
  190000    781.97981   -894.86456            0   -881.92647    7179.7349     13.45396    13.353653    13.253679    2.3655995      167.128    3546.8276 
  191000     802.3447   -893.26075            0   -879.98571    6709.2465     13.45396    13.353653    13.253679    3.1288433    168.98427    3544.9558 
  192000     757.7636   -892.23661            0   -879.69918    5346.3115     13.45396    13.353653    13.253679    2.1915412    170.84286    3543.1324 
  193000    738.50921   -893.96102            0   -881.74216    8352.4396     13.45396    13.353653    13.253679    3.5912971    172.69866     3541.251 
  194000     883.8566   -894.43752            0   -879.81385    6411.1375     13.45396    13.353653    13.253679    3.0250284    174.55472    3539.3754 
  195000    952.89048   -894.19195            0   -878.42609    4830.6886     13.45396    13.353653    13.253679    2.2910252    176.41789    3537.6429 
  196000    771.52283   -893.92434            0   -881.15926    5179.4784     13.45396    13.353653    13.253679    2.6053365    178.27333    3535.7545 
  197000    801.86311   -894.71794            0   -881.45088    6140.2735     13.45396    13.353653    13.253679    2.5757518    180.12467     3533.786 
  198000    873.65817   -892.98569            0   -878.53076    6206.7978     13.45396    13.353653    13.253679    2.3637053    181.97983    3531.8943 
  199000    819.74857   -895.14578            0   -881.58279    3020.8027     13.45396    13.353653    13.253679    2.4066936      183.832    3529.9457 
  200000    827.00825   -894.50611            0   -880.82301    5163.5306     13.45396    13.353653    13.253679    2.5960734    185.68447     3528.005 
  201000    890.51627   -892.31069            0   -877.57683    6758.6185     13.45396    13.353653    13.253679     3.006301    187.53938    3526.1118 
  202000    794.57209   -893.88775            0   -880.74132    5587.6612     13.45396    13.353653    13.253679    2.2547088    189.39675     3524.265 
  203000    764.40561   -894.12576            0   -881.47844    5731.7801     13.45396    13.353653    13.253679    2.1098459    191.25301    3522.3976 
  204000    903.83616   -893.58467            0   -878.63043    7635.3383     13.45396    13.353653    13.253679    2.3642344    193.10754     3520.499 
  205000    789.64266   -894.71107            0   -881.64619    5556.8194     13.45396    13.353653    13.253679    2.5544875    194.96608    3518.6736 
  206000      817.074   -894.72402            0   -881.20529    6137.8674     13.45396    13.353653    13.253679    2.2050524    196.82159    3516.7934 
  207000    855.04439   -892.88819            0   -878.74122    6554.2104     13.45396    13.353653    13.253679    2.4990951     198.6762    3514.8977 
  208000    759.05009   -894.67302            0    -882.1143    6031.2036     13.45396    13.353653    13.253679    1.9015141    200.53029    3512.9935 
  209000    835.04834      -894.84            0   -881.02387     4983.166     13.45396    13.353653    13.253679    2.3877574    202.38694    3511.1349 
  210000    811.35857   -892.93736            0   -879.51319    8964.8921     13.45396    13.353653    13.253679    2.2260172    204.24292    3509.2648 
  211000    795.34574   -896.41069            0   -883.25146    346.01867     13.45396    13.353653    13.253679    1.9913938    206.09759    3507.3725 
  212000    816.84758   -893.89885            0   -880.38387    6842.4787     13.45396    13.353653    13.253679    1.4546495    207.95427    3505.5148 
  213000    773.20405   -893.44906            0   -880.65617    6934.2864     13.45396    13.353653    13.253679    2.6835796     209.8121    3503.6764 
  214000    696.20365   -894.70019            0    -883.1813    4984.0059     13.45396    13.353653    13.253679    2.1770547    211.66542     3501.763 
  215000    839.65633   -894.77363            0   -880.88126    4681.6512     13.45396    13.353653    13.253679    2.6474495    213.52127    3499.8921 
  216000    860.77288   -894.63151            0   -880.38977    7178.3013     13.45396    13.353653    13.253679    2.2392914     215.3761     3498.005 
  217000    750.31932   -895.83321            0   -883.41895    4380.1768     13.45396    13.353653    13.253679    2.0699063    217.23664    3496.2103 
  218000     887.0084    -895.3374            0   -880.66158    5457.2814     13.45396    13.353653    13.253679    1.8992132    219.09723    3494.4152 
  219000    814.49499   -894.22134            0   -880.74528     3364.768     13.45396    13.353653    13.253679    2.4138221    220.95673    3492.6018 
  220000    681.07305   -895.20725            0    -883.9387    1779.3312     13.45396    13.353653    13.253679    2.5378901    222.81592    3490.7828 
  221000    797.74169   -894.60584            0   -881.40697    5175.0745     13.45396    13.353653    13.253679     2.320709      224.676    3488.9768 
  222000    816.56795   -894.01005            0   -880.49969    5633.2965     13.45396    13.353653    13.253679    2.2948958    226.53908    3487.2163 
  223000    803.34931   -895.04674            0   -881.75509    6829.4191     13.45396    13.353653    13.253679    2.4676634    228.38938     3485.259 
  224000    695.43362   -894.49346            0    -882.9873    5692.3184     13.45396    13.353653    13.253679    3.3789833    230.24406    3483.3699 
  225000    813.97524    -893.0849            0   -879.61744    8338.9136     13.45396    13.353653    13.253679    2.4705321    232.10176    3481.5265 
  226000    763.96893   -894.57332            0   -881.93323    4379.9608     13.45396    13.353653    13.253679    2.5889763    233.95917    3479.6784 
  227000    814.64859   -894.92701            0    -881.4484    5388.5417     13.45396    13.353653    13.253679    2.2964597    235.81612    3477.8236 
  228000    889.38451   -894.24269            0   -879.52755     4885.417     13.45396    13.353653    13.253679    1.9300736     237.6757    3476.0072 
  229000    777.66941   -895.07753            0   -882.21076     2394.519     13.45396    13.353653    13.253679    1.9692597    239.54122    3474.2761 
  230000    864.25363   -893.43983            0    -879.1405     7863.035     13.45396    13.353653    13.253679    1.9468335    241.40354    3472.4971 
  231000     845.6291   -893.76144            0   -879.77026    7595.8977     13.45396    13.353653    13.253679     2.146629    243.26802    3470.7476 
  232000    762.80868   -894.42493            0   -881.80403     5425.552     13.45396    13.353653    13.253679    2.5439041    245.12865    3468.9418 
  233000    890.68969   -893.35799            0   -878.62126      6971.49     13.45396    13.353653    13.253679    2.3481886    246.98921    3467.1343 
  234000     787.6242   -892.74741            0   -879.71594     9218.189     13.45396    13.353653    13.253679    3.7162599    248.85195    3465.3563 
  235000    759.96832    -893.9303            0   -881.35639    6332.1393     13.45396    13.353653    13.253679    2.1698163    250.71351    3463.5607 
  236000       769.67   -894.17039            0   -881.43597    5895.8652     13.45396    13.353653    13.253679    2.8766612    252.57557     3461.771 
  237000    804.36714   -892.45532            0   -879.14682    8517.3855     13.45396    13.353653    13.253679    2.4435147    254.43995    3460.0119 
  238000    778.92706   -895.14518            0    -882.2576    4973.5181     13.45396    13.353653    13.253679    2.8174131    256.30118    3458.2087 
  239000    810.20995   -894.92632            0   -881.52116     3474.968     13.45396    13.353653    13.253679    2.0200775    258.16249    3456.4057 
  240000    818.69799   -894.17591            0   -880.63031    7365.7991     13.45396    13.353653    13.253679    2.3786864    260.02491    3454.6167 
  241000    792.06109   -894.17751            0   -881.07262    7798.0259     13.45396    13.353653    13.253679    2.3858897    261.88836    3452.8401 
  242000    781.89357   -894.38202            0   -881.44536    2840.9222     13.45396    13.353653    13.253679    2.5239921    263.75023    3451.0418 
  243000    772.97198   -893.44323            0   -880.65418    5502.4462     13.45396    13.353653    13.253679    1.9628092    265.61013    3449.2169 
  244000    870.69311   -894.00211            0   -879.59623    6730.7719     13.45396    13.353653    13.253679    2.3576205    267.47052    3447.3979 
  245000    759.17257   -895.13736            0   -882.57663    5182.7757     13.45396    13.353653    13.253679    3.1702884    269.33367    3445.6135 
  246000    765.20512   -893.50024            0   -880.83969    3188.5228     13.45396    13.353653    13.253679    2.9032992    271.18923    3443.7317 
  247000    772.83234   -892.87301            0   -880.08627    5374.0075     13.45396    13.353653    13.253679    2.0914688    273.04975    3441.9129 
  248000    711.64799   -893.88661            0   -882.11218    5455.8759     13.45396    13.353653    13.253679     2.250156    274.90487    3440.0258 
  249000     765.5212   -893.47178            0   -880.80601    8412.9015     13.45396    13.353653    13.253679    1.8942464    276.75966    3438.1351 
  250000    864.35045   -894.01888            0   -879.71794    6048.0267     13.45396    13.353653    13.253679    1.9981463    278.61727    3436.2796 
  251000    769.60743   -895.07201            0   -882.33863    3987.6625     13.45396    13.353653    13.253679    1.8767313     280.4814    3434.5041 
  252000    763.81425   -893.66496            0   -881.02742    4748.8027     13.45396    13.353653    13.253679    2.7300475    282.33772    3432.6323 
  253000    734.44805   -892.62633            0   -880.47467     5985.473     13.45396    13.353653    13.253679    2.7535555    284.19474    3430.7692 
  254000    808.90158   -895.82205            0   -882.43853    5060.7338     13.45396    13.353653    13.253679    1.9642534    286.05288    3428.9196 
  255000    856.05546   -894.55058            0   -880.38688    4923.7112     13.45396    13.353653    13.253679    2.4672111    287.90728    3427.0254 
  256000    776.63905   -892.89635            0   -880.04663    6137.2261     13.45396    13.353653    13.253679    2.6445808    289.76357     3425.154 
  257000    697.48227   -894.66195            0    -883.1219    4039.5822     13.45396    13.353653    13.253679    1.9390211    291.61854    3423.2674 
  258000    836.46803   -894.41939            0   -880.57978    5156.4328     13.45396    13.353653    13.253679    2.2444402    293.47399    3421.3866 
  259000    783.60172   -893.22403            0   -880.25911    3437.1852     13.45396    13.353653    13.253679    1.6904692    295.33264    3419.5434 
  260000    732.35302   -895.67003            0   -883.55303    2524.7261     13.45396    13.353653    13.253679     2.617832    297.18795    3417.6614 
  261000     801.8368   -894.10056            0   -880.83393    4030.7197     13.45396    13.353653    13.253679    2.3598019    299.06138    3415.9868 
  262000    744.35968     -893.252            0   -880.93635    5185.3655     13.45396    13.353653    13.253679    2.4039257    300.92447    3414.1925 
  263000    718.19593   -896.00483            0   -884.12207    1097.6554     13.45396    13.353653    13.253679    1.8155234    302.78528    3412.3715 
  264000    792.74895   -894.48077            0    -881.3645    6030.4467     13.45396    13.353653    13.253679    1.9373722    304.64403    3410.5271 
  265000    775.37658   -893.14554            0   -880.31671    4674.0141     13.45396    13.353653    13.253679    2.4714766    306.50406    3408.6967 
  266000    728.64256   -894.28871            0    -882.2331    5001.1554     13.45396    13.353653    13.253679    2.7416634    308.36364    3406.8609 
  267000    749.07751   -894.27876            0   -881.88505    5592.6183     13.45396    13.353653    13.253679    2.4795334    310.22404     3405.034 
  268000    805.71202   -893.44725            0    -880.1165    8723.5984     13.45396    13.353653    13.253679    3.3281377     312.0868    3403.2323 
  269000    756.79201   -894.95505            0    -882.4337    3185.1868     13.45396    13.353653    13.253679    2.1321426    313.94941    3401.4282 
  270000    683.44399   -894.12421            0   -882.81643    6058.9874     13.45396    13.353653    13.253679    2.6639485     315.8033    3399.5296 
  271000    831.09055   -893.45986            0   -879.70922    7517.3593     13.45396    13.353653    13.253679    3.0682364    317.66188    3397.6818 
  272000    759.40532   -894.76181            0   -882.19722    4275.8031     13.45396    13.353653    13.253679    2.2167448    319.51775    3395.8049 
  273000    774.26827   -894.29487            0   -881.48437    6285.3642     13.45396    13.353653    13.253679    2.4278419     321.3768     3393.962 
  274000    820.54442   -893.38815            0     -879.812    4163.3714     13.45396    13.353653    13.253679    2.8018926    323.23358    3392.0949 
  275000    770.21468   -895.04473            0    -882.3013    4517.6673     13.45396    13.353653    13.253679    2.2421568    325.08939    3390.2179 
  276000    873.14669   -893.57918            0    -879.1327     6166.273     13.45396    13.353653    13.253679    2.1206013    326.94356    3388.3242 
  277000    828.56145   -893.83357            0   -880.12477    7049.0323     13.45396    13.353653    13.253679    3.2285713    328.80279     3386.483 
  278000    779.25647   -894.32168            0   -881.42865    7634.0161     13.45396    13.353653    13.253679    1.6175616    330.65633    3384.5833 
  279000    860.33259   -894.98723            0   -880.75277     5590.959     13.45396    13.353653    13.253679    2.6888925    332.51468    3382.7332 
  280000     843.9794   -892.40129            0    -878.4374    9330.6566     13.45396    13.353653    13.253679    2.7065528    334.37635    3380.9164 
  281000    731.57733   -893.79973            0   -881.69556    5293.2765     13.45396    13.353653    13.253679     1.971166    336.23937    3379.1128 
  282000    882.44917   -895.15253            0   -880.55215    4674.4988     13.45396    13.353653    13.253679    2.5527621    338.09848    3377.2694 
  283000    860.70526   -892.83511            0   -878.59448    7753.1384     13.45396    13.353653    13.253679    2.5437124    339.95946    3375.4445 
  284000    725.75198   -892.62451            0   -880.61673    6075.7811     13.45396    13.353653    13.253679    2.4568751    341.82177    3373.6323 
  285000    797.57335   -894.54343            0   -881.34734    4640.1491     13.45396    13.353653    13.253679    1.7950382    343.68396    3371.8183 
  286000     801.2607   -894.74242            0   -881.48533    5532.6848     13.45396    13.353653    13.253679    2.1215754    345.54383    3369.9812 
  287000     830.9163   -892.97979            0   -879.23203     8103.115     13.45396    13.353653    13.253679    2.3919832    347.40411    3368.1479 
  288000    755.78463   -894.22161            0   -881.71692    8122.3375     13.45396    13.353653    13.253679    2.5701873    349.26451    3366.3154 
  289000    828.48088   -895.47644            0   -881.76898    6308.8189     13.45396    13.353653    13.253679    1.9361589    351.12544    3364.4877 
  290000    870.70896   -894.01946            0   -879.61332    9104.8204     13.45396    13.353653    13.253679    2.2097328    352.98484    3362.6451 
  291000    735.81757   -895.54808            0   -883.37376    3084.6069     13.45396    13.353653    13.253679    2.6100256    354.84603    3360.8192 
  292000    788.51589   -893.80762            0   -880.76139    1740.2255     13.45396    13.353653    13.253679     1.888225    356.70882    3359.0081 
  293000    856.35165   -894.50735            0   -880.33875    7046.5996     13.45396    13.353653    13.253679    2.5545982    358.56947    3357.1763 
  294000    715.67904   -895.47571            0   -883.63458    5552.4996     13.45396    13.353653    13.253679    3.1736323    360.42604    3355.3063 
  295000    800.05828   -895.01317            0   -881.77596    2798.6448     13.45396    13.353653    13.253679    2.4632275    362.28245     3353.435 
  296000    878.89289   -894.61294            0    -880.0714    5968.2533     13.45396    13.353653    13.253679    1.9475158    364.14237    3351.5961 
  297000    704.75863   -893.75149            0   -882.09105    4669.0486     13.45396    13.353653    13.253679    1.9295476    365.99715      3349.71 
  298000    728.88356   -894.03542            0   -881.97583     3458.443     13.45396    13.353653    13.253679    2.5242413    367.85251    3347.8294 
  299000    867.93696    -894.2081            0   -879.84782    4939.4523     13.45396    13.353653    13.253679    2.1801919    369.70887    3345.9582 
  300000    796.16493    -894.7001            0   -881.52732    4315.1002     13.45396    13.353653    13.253679    2.4606412    371.56721    3344.1049 
  301000    654.37066   -895.50397            0   -884.67721    5629.8146     13.45396    13.353653    13.253679    1.9342136    373.43022    3342.2934 
  302000    778.69713   -893.93411            0   -881.05034    6726.1365     13.45396    13.353653    13.253679    2.4946364    375.28629    3340.4196 
  303000    858.96149   -894.09727            0   -879.88549    6227.7591     13.45396    13.353653    13.253679    2.4187494    377.14448    3338.5647 
  304000    778.85587     -895.038            0    -882.1516    5368.4142     13.45396    13.353653    13.253679    2.8114583      379.002    3336.7039 
  305000    738.94043   -893.49723            0   -881.27124    6190.6089     13.45396    13.353653    13.253679    2.1617538    380.85858    3334.8349 
  306000    798.95659   -893.04029            0   -879.82132    5300.6026     13.45396    13.353653    13.253679    2.8303301    382.71759    3332.9872 
  307000     727.7655   -894.33392            0   -882.29282    2932.0285     13.45396    13.353653    13.253679    1.8882523    384.57664    3331.1397 
  308000    918.03145   -893.74862            0   -878.55951    6955.1245     13.45396    13.353653    13.253679    2.8149003    386.43478    3329.2842 
  309000    812.44759   -893.93763            0   -880.49544     5935.429     13.45396    13.353653    13.253679    2.9494999    388.28981    3327.4022 
  310000    745.20267   -894.01599            0   -881.68638    7251.8483     13.45396    13.353653    13.253679    2.2188652    390.14899    3325.5557 
  311000    905.06131   -892.89106            0   -877.91655    7381.4205     13.45396    13.353653    13.253679    2.3668888    392.00646    3323.6946 
  312000    780.84018   -893.44792            0   -880.52868    2886.4218     13.45396    13.353653    13.253679    1.7285368    393.86301    3321.8258 
  313000    805.22367   -894.81161            0   -881.48894    2291.1463     13.45396    13.353653    13.253679    2.6170591    395.72516    3320.0041 
  314000    798.30736   -893.28393            0    -880.0757    7566.6086     13.45396    13.353653    13.253679    2.9179964    397.58129    3318.1317 
  315000    775.43573   -892.40952            0   -879.57971    4335.0831     13.45396    13.353653    13.253679    2.5099011    399.43564    3316.2447 
  316000    743.21216   -894.42761            0   -882.13094    4716.7351     13.45396    13.353653    13.253679    1.9534259    401.29167    3314.3719 
  317000    756.21739   -893.07725            0   -880.56541     7404.901     13.45396    13.353653    13.253679    1.9635318    403.14606    3312.4858 
  318000    829.25401   -894.28939            0   -880.56913    6201.0478     13.45396    13.353653    13.253679    2.3056066    405.00646    3310.6492 
  319000    760.03578   -893.75378            0   -881.17876    5895.5689     13.45396    13.353653    13.253679    3.3992414    406.86202    3308.7728 
  320000    735.24788   -894.48796            0   -882.32306    4741.2689     13.45396    13.353653    13.253679    1.8006391    408.71784    3306.8989 
  321000    747.33459   -892.39504            0   -880.03017    8837.4485     13.45396    13.353653    13.253679    2.0361809    410.57382    3305.0264 
  322000    876.23377   -894.75689            0   -880.25934    4049.2585     13.45396    13.353653    13.253679    2.1039714    412.43003    3303.1558 
  323000    755.03025   -895.17118            0   -882.67898    4448.6647     13.45396    13.353653    13.253679     2.227214    414.28762    3301.2964 
  324000    726.11876   -892.64804            0   -880.63418    5246.3638     13.45396    13.353653    13.253679    2.0513587     416.1468    3299.4496 
  325000     851.2307   -893.88232            0   -879.79845    4069.9544     13.45396    13.353653    13.253679    2.7610477    418.00613    3297.6039 
  326000    749.57128   -895.20568            0    -882.8038    4071.0864     13.45396    13.353653    13.253679     3.506668    419.86192    3295.7303 
  327000    762.73034   -892.60327            0   -879.98367    7945.0366     13.45396    13.353653    13.253679    2.9494904    421.71855    3293.8634 
  328000    787.76906   -893.44751            0   -880.41364    7276.6814     13.45396    13.353653    13.253679    2.5220755    423.57496    3291.9948 
  329000    729.04752   -893.96507            0   -881.90276     4230.361     13.45396    13.353653    13.253679    2.5721908    425.43359    3290.1436 
  330000    745.63014   -894.31108            0    -881.9744    2623.4852     13.45396    13.353653    13.253679    2.5273482    427.28942    3288.2708 
  331000    832.00936   -892.98964            0    -879.2238    9858.6122     13.45396    13.353653    13.253679    1.9362558    429.14532    3286.3985 
  332000    779.50654   -895.04655            0   -882.14938     3631.426     13.45396    13.353653    13.253679    2.0939962    431.00027    3284.5193 
  333000    811.97218   -895.02285            0   -881.58853    6961.9154     13.45396    13.353653    13.253679    2.7234008     432.8559    3282.6454 
  334000    900.98887   -895.07483            0    -880.1677    5831.1995     13.45396    13.353653    13.253679    2.2032863    434.71124    3280.7694 
  335000    775.00041    -893.3927            0   -880.57009    6084.6219     13.45396    13.353653    13.253679    2.4372557    436.56581    3278.8879 
  336000    759.04391   -893.13255            0   -880.57394    7035.2547     13.45396    13.353653    13.253679    3.3051651    438.41977     3277.002 
  337000    774.56559   -893.27511            0   -880.45969    6352.2247     13.45396    13.353653    13.253679    2.3494309    440.27319    3275.1124 
  338000    826.18407   -894.70145            0   -881.03199    7334.6653     13.45396    13.353653    13.253679     2.599722    442.13126    3273.2575 
  339000    767.62993   -894.25464            0   -881.55398    4846.0017     13.45396    13.353653    13.253679    3.5625316    443.98726    3271.3873 
  340000    925.46711   -894.36228            0   -879.05015    5826.8963     13.45396    13.353653    13.253679    3.9404696     445.8431    3269.5161 
  341000    771.08319   -894.58044            0   -881.82264    3856.6994     13.45396    13.353653    13.253679    2.3367654    447.70164    3267.6646 
  342000    817.11015   -894.97508            0   -881.45575    6006.7563     13.45396    13.353653    13.253679     3.436925    449.55724    3265.7919 
  343000    792.16209   -892.73571            0   -879.62915      1885.33     13.45396    13.353653    13.253679    2.2455073    451.41596    3263.9417 
  344000    698.39962   -894.89945            0   -883.34422    4368.6315     13.45396    13.353653    13.253679    2.6273725    453.27154     3262.069 
  345000    786.38329   -893.60779            0   -880.59685    4170.3691     13.45396    13.353653    13.253679    2.5885018    455.13404    3260.2459 
  346000    869.55893   -895.03138            0   -880.64427    2874.5397     13.45396    13.353653    13.253679    1.8010531     456.9897    3258.3737 
  347000     657.4465   -895.17567            0   -884.29803    2851.4628     13.45396    13.353653    13.253679    2.3082768    458.84964    3256.5321 
  348000    859.98708   -896.33137            0   -882.10262    4849.7466     13.45396    13.353653    13.253679    2.4122932    460.70322    3254.6454 
  349000    803.92916   -893.38074            0   -880.07949    4986.2843     13.45396    13.353653    13.253679    2.3870058      462.563    3252.8025 
  350000    853.84522    -894.7588            0   -880.63167     5523.942     13.45396    13.353653    13.253679    2.2481633    464.42045    3250.9431 
  351000    734.17022   -894.71448            0   -882.56742    3765.4397     13.45396    13.353653    13.253679    1.7985767    466.27929    3249.0936 
  352000    907.96541   -894.60661            0   -879.58405    6630.1796     13.45396    13.353653    13.253679    2.2927453    468.13904    3247.2502 
  353000    805.46669   -894.10383            0   -880.77714    4871.3878     13.45396    13.353653    13.253679    1.9540365    470.00097    3245.4217 
  354000    726.00349   -895.25655            0   -883.24461    3286.1052     13.45396    13.353653    13.253679    2.8394855     471.8635    3243.5972 
  355000    788.53738   -895.30107            0   -882.25448    3825.0628     13.45396    13.353653    13.253679      2.04635    473.72258    3241.7486 
  356000    804.57122   -893.59855            0   -880.28668    4860.7683     13.45396    13.353653    13.253679    3.0733266    475.58366    3239.9137 
  357000    791.52867   -893.73009            0   -880.63401    4510.8598     13.45396    13.353653    13.253679    1.9298597    477.44731     3238.096 
  358000    760.13805   -895.54662            0    -882.9699    6438.2796     13.45396    13.353653    13.253679    2.2893073    479.30808    3236.2584 
  359000     850.8242   -893.70472            0   -879.62758    3554.4669     13.45396    13.353653    13.253679    1.8465567    481.16459    3234.3921 
  360000    819.71693   -894.41649            0   -880.85403    7572.0114     13.45396    13.353653    13.253679     2.726714    483.02412     3232.546 
  361000    814.67948   -895.60611            0   -882.12699    5278.5778     13.45396    13.353653    13.253679    2.2121987    484.88552    3230.7123 
  362000    913.21508   -893.72288            0   -878.61347    7079.5339     13.45396    13.353653    13.253679    2.9404026    486.74466    3228.8635 
  363000    795.03606   -894.86585            0   -881.71174    4837.1391     13.45396    13.353653    13.253679    2.0590395    488.60654    3227.0325 
  364000      742.204   -893.51455            0   -881.23456    4533.7766     13.45396    13.353653    13.253679    2.2398895    490.46709    3225.1927 
  365000    887.32166   -892.42235            0   -877.74134    7821.3564     13.45396    13.353653    13.253679     3.104615    492.32913    3223.3624 
  366000    812.90224   -893.55842            0   -880.10871    8932.8986     13.45396    13.353653    13.253679    2.4149551    494.19152    3221.5342 
  367000     718.0717    -894.0904            0   -882.20969    4944.3679     13.45396    13.353653    13.253679    3.4986388    496.05225    3219.6949 
  368000    844.70914   -893.09678            0   -879.12081    6008.4666     13.45396    13.353653    13.253679    2.3249731     497.9089    3217.8292 
  369000    783.98643   -893.10344            0   -880.13215    9595.5385     13.45396    13.353653    13.253679    2.3823167    499.76709    3215.9734 
  370000    813.26879   -894.49141            0   -881.03564    7142.3021     13.45396    13.353653    13.253679    2.0215647    501.62987    3214.1469 
  371000     780.7017    -892.6504            0   -879.73346    8324.6389     13.45396    13.353653    13.253679    2.3422348    503.48737    3212.2866 
  372000    869.32684   -893.00643            0   -878.62316    4741.0459     13.45396    13.353653    13.253679    2.2843077    505.34734     3210.442 
  373000    834.58155    -894.8999            0    -881.0915    4932.7729     13.45396    13.353653    13.253679    2.0330141    507.20405    3208.5765 
  374000    801.72207   -893.60404            0   -880.33931    6368.4321     13.45396    13.353653    13.253679    2.1018339    509.06648    3206.7473 
  375000    915.64813   -893.30393            0   -878.15426    7807.1412     13.45396    13.353653    13.253679    2.4666189    510.92272    3204.8789 
  376000      733.684   -893.91028            0   -881.77126    5390.5482     13.45396    13.353653    13.253679    2.7600366    512.78389    3203.0414 
  377000    875.34084   -894.99339            0   -880.51061    5000.9234     13.45396    13.353653    13.253679    2.6501358    514.64404    3201.1974 
  378000    893.00635   -892.54662            0   -877.77156    8093.6445     13.45396    13.353653    13.253679    2.8313577    516.50639    3199.3669 
  379000    775.34354   -894.79082            0   -881.96253    2509.9069     13.45396    13.353653    13.253679    1.9396311    518.36742    3197.5281 
  380000    831.92035   -894.28413            0   -880.51976    3315.5812     13.45396    13.353653    13.253679     2.199855    520.22708    3195.6807 
  381000    753.10148    -891.9464            0   -879.48612    7676.9673     13.45396    13.353653    13.253679    2.3723585    522.08969    3193.8512 
  382000    741.20191   -894.76115            0   -882.49774    1942.8589     13.45396    13.353653    13.253679    2.2825453    523.95047    3192.0103 
  383000    871.79917   -894.18489            0   -879.76071    3868.0377     13.45396    13.353653    13.253679    2.2032391    525.80924    3190.1571 
  384000    845.90707   -895.13007            0   -881.13429    5983.0246     13.45396    13.353653    13.253679    1.9969225    527.66236    3188.2697 
  385000    753.65225   -896.43122            0   -883.96182     3448.304     13.45396    13.353653    13.253679    1.8791294    529.51641    3186.3882 
  386000    741.68648   -893.09017            0   -880.81875    8855.6706     13.45396    13.353653    13.253679    2.0823581    531.37589    3184.5394 
  387000    889.20073   -894.97918            0   -880.26709    4373.9507     13.45396    13.353653    13.253679    2.6968444    533.23753    3182.7035 
  388000    674.50193   -894.44992            0   -883.29008    3063.0484     13.45396    13.353653    13.253679    2.7205682    535.10729    3180.9156 
  389000    753.02593   -893.50353            0   -881.04449    4183.3743     13.45396    13.353653    13.253679    2.9365418    536.96464    3179.0537 
  390000    779.11798   -893.13102            0   -880.24028    7045.5643     13.45396    13.353653    13.253679    2.9100017    538.82398    3177.2035 
  391000    791.32956   -894.01606            0   -880.92328    10697.636     13.45396    13.353653    13.253679    3.0570036    540.68188    3175.3448 
  392000    760.10416   -894.97395            0    -882.3978    7485.6466     13.45396    13.353653    13.253679    2.3587569    542.53947    3173.4843 
  393000    876.04423   -893.60738            0   -879.11297    6614.7044     13.45396    13.353653    13.253679    3.2737048    544.39594    3171.6173 
  394000    812.44432    -894.2974            0   -880.85527    7671.1859     13.45396    13.353653    13.253679     2.008031    546.25387    3169.7589 
  395000      788.479   -894.23335            0   -881.18773    4457.8697     13.45396    13.353653    13.253679    1.9082007    548.10892    3167.8837 
  396000    786.15488   -892.99782            0   -879.99065    5541.6303     13.45396    13.353653    13.253679    2.0028667    549.97588    3166.0774 
  397000    911.53972   -893.34569            0     -878.264     4471.717     13.45396    13.353653    13.253679    2.5137492    551.83453    3164.2229 
  398000    855.82555   -895.54129            0    -881.3814    5665.1394     13.45396    13.353653    13.253679    2.3207835    553.69042    3162.3527 
  399000    814.34074   -894.23467            0   -880.76116    2672.2755     13.45396    13.353653    13.253679    2.1202438    555.54495    3160.4748 
  400000     942.6863   -894.18847            0   -878.59144    4537.5948     13.45396    13.353653    13.253679    2.7141376    557.40228    3158.6129 
  401000    755.57778   -894.36599            0   -881.86473    3671.3027     13.45396    13.353653    13.253679    2.1640054    559.25966    3156.7514 
  402000    916.96837    -895.1629            0   -879.99139    7008.2179     13.45396    13.353653    13.253679    2.2547563    561.11579    3154.8828 
  403000    830.68896   -894.53169            0    -880.7877    7038.0446     13.45396    13.353653    13.253679    2.0888614    562.97177    3153.0135 
  404000    699.60102   -893.94648            0   -882.37137    3478.5393     13.45396    13.353653    13.253679    2.5568764    564.82733     3151.142 
  405000    910.19671   -894.88245            0   -879.82297    5273.6376     13.45396    13.353653    13.253679    3.2086309     566.6803    3149.2561 
  406000     848.8957   -894.85061            0   -880.80538    4453.8438     13.45396    13.353653    13.253679    1.8999066    568.54507    3147.4358 
  407000    799.63715   -894.56508            0   -881.33484    9048.5618     13.45396    13.353653    13.253679    1.9795525    570.39966     3145.559 
  408000    793.12952   -893.48174            0   -880.35917    4807.8797     13.45396    13.353653    13.253679    2.8643783    572.25856    3143.7061 
  409000    824.23669   -893.19508            0   -879.55784    5072.1499     13.45396    13.353653    13.253679    1.9001966    574.11797    3141.8559 
  410000    786.97613   -895.05911            0   -882.03835    5700.0924     13.45396    13.353653    13.253679    2.1387478    575.97378    3139.9861 
  411000    797.73913   -892.96304            0   -879.76421    6449.2558     13.45396    13.353653    13.253679    2.4524803    577.82849    3138.1103 
  412000     835.9876   -892.51623            0   -878.68456    3666.4706     13.45396    13.353653    13.253679    3.5611283    579.68676     3136.254 
  413000    723.01209   -893.96148            0   -881.99903    5463.3522     13.45396    13.353653    13.253679    2.2807445    581.54449    3134.3948 
  414000     798.5226   -893.42382            0   -880.21203    5789.4612     13.45396    13.353653    13.253679    2.7018463     583.4051     3132.551 
  415000    747.47152   -892.86091            0   -880.49377    8871.5164     13.45396    13.353653    13.253679    3.1049978    585.26603    3130.7088 
  416000    769.12444   -895.42092            0   -882.69552    4202.8024     13.45396    13.353653    13.253679    2.2761247    587.12422    3128.8518 
  417000    891.11514    -894.8168            0   -880.07303    5821.8813     13.45396    13.353653    13.253679    2.2863146    588.97886    3126.9761 
  418000    753.45866   -893.44714            0   -880.98094    8176.9912     13.45396    13.353653    13.253679      1.83573    590.83179    3125.0914 
  419000    708.12561   -894.65068            0   -882.93453    2546.4045     13.45396    13.353653    13.253679      1.81299    592.68888    3123.2289 
  420000    746.08249   -894.15585            0    -881.8117    4549.5641     13.45396    13.353653    13.253679    2.0780277    594.54339    3121.3528 
  421000    820.20685   -893.47309            0   -879.90253    8171.6573     13.45396    13.353653    13.253679    2.2792677    596.39968    3119.4862 
  422000    738.64674   -894.65259            0   -882.43146    6052.7046     13.45396    13.353653    13.253679    2.1129345    598.25457    3117.6123 
  423000     764.3987   -893.86017            0   -881.21296     4562.229     13.45396    13.353653    13.253679    2.8573589    600.11088     3115.746 
  424000    815.80948   -893.79763            0   -880.29982    5265.9227     13.45396    13.353653    13.253679    3.5161243    601.96878    3113.8879 
  425000     745.4421   -894.84804            0   -882.51448    7045.0385     13.45396    13.353653    13.253679    2.5432361    603.82339    3112.0128 
  426000    841.41149   -893.00823            0   -879.08683    8245.0984     13.45396    13.353653    13.253679    2.3467793    605.67811    3110.1385 
  427000    842.62537   -894.93533            0   -880.99384    3611.4266     13.45396    13.353653    13.253679    1.8029979    607.53242    3108.2622 
  428000    761.97812   -894.19056            0    -881.5834     7879.183     13.45396    13.353653    13.253679    2.7703702    609.39001    3106.4027 
  429000      789.146    -893.7874            0   -880.73075    6002.4049     13.45396    13.353653    13.253679    2.2697529    611.24612    3104.5358 
  430000    828.42579   -894.56661            0   -880.86006    5823.0421     13.45396    13.353653    13.253679    2.3043483    613.10066    3102.6609 
  431000    726.04987   -893.81376            0   -881.80105    2340.5645     13.45396    13.353653    13.253679    2.1094653    614.95695     3100.795 
  432000    730.89001   -895.00388            0   -882.91109     5609.058     13.45396    13.353653    13.253679    1.8557124    616.81906    3098.9584 
  433000    817.92464   -893.44486            0   -879.91206    7221.6503     13.45396    13.353653    13.253679    2.1313508     618.6739    3097.0852 
  434000     752.2222   -894.20953            0   -881.76379    9422.4684     13.45396    13.353653    13.253679    2.3127789    620.52995    3095.2183 
  435000    661.92876   -895.93753            0   -884.98572    1182.3087     13.45396    13.353653    13.253679    2.1085427    622.38761    3093.3593 
  436000    779.20617   -893.54597            0   -880.65377    5795.9732     13.45396    13.353653    13.253679    2.5305069    624.24294    3091.4889 
  437000    880.13717   -895.19816            0   -880.63603    5108.7448     13.45396    13.353653    13.253679    2.1134687    626.09861    3089.6202 
  438000    803.68263   -896.20216            0   -882.90499    4552.0899     13.45396    13.353653    13.253679     1.830966     627.9534    3087.7472 
  439000    886.16464   -894.05858            0   -879.39672    7691.3607     13.45396    13.353653    13.253679    2.1031593    629.81007    3085.8836 
  440000    805.30567   -894.53785            0   -881.21383    4236.8548     13.45396    13.353653    13.253679     2.497414    631.66659    3084.0192 
  441000    745.52676   -894.34659            0   -882.01162    3398.6807     13.45396    13.353653    13.253679    2.3970459    633.52683    3082.1731 
  442000    835.64336   -894.89859            0   -881.07262    6127.4566     13.45396    13.353653    13.253679    2.4269368    635.38773      3080.33 
  443000    787.30596   -893.44657            0   -880.42036    5776.3141     13.45396    13.353653    13.253679    2.6869268     637.2481    3078.4843 
  444000    862.80484   -894.90514            0   -880.62978    4495.3236     13.45396    13.353653    13.253679    2.1875457    639.10129    3076.6039 
  445000     735.7155   -894.77225            0   -882.59962    3728.2227     13.45396    13.353653    13.253679    2.1284968    640.95625    3074.7322 
  446000    934.35914   -894.79655            0    -879.3373    5392.3995     13.45396    13.353653    13.253679    2.8370014    642.81167    3072.8627 
  447000    824.83795   -894.43272            0   -880.78553    4864.0586     13.45396    13.353653    13.253679    2.2348928    644.66869     3071.001 
  448000    707.05405    -893.2896            0   -881.59118    6019.4615     13.45396    13.353653    13.253679    2.1588419    646.52525    3069.1371 
  449000     866.3883   -894.62425            0   -880.28959    4955.8157     13.45396    13.353653    13.253679    1.9819378     648.3841    3067.2841 
  450000    822.49061   -891.39181            0   -877.78345    11086.218     13.45396    13.353653    13.253679    1.9645286     650.2374    3065.4049 
  451000     768.9369   -893.55638            0   -880.83409    8296.8077     13.45396    13.353653    13.253679    2.1584353     652.0921    3063.5324 
  452000      758.673   -893.71591            0   -881.16344    4431.5551     13.45396    13.353653    13.253679    2.8550794    653.95017    3061.6758 
  453000    875.20137   -892.21484            0   -877.73437    7768.4315     13.45396    13.353653    13.253679    2.3303992    655.80909    3059.8231 
  454000     751.7499   -893.52834            0   -881.09042    5682.7336     13.45396    13.353653    13.253679    3.0721078    657.66699    3057.9657 
  455000    835.61344   -894.36357            0    -880.5381    6206.0038     13.45396    13.353653    13.253679    2.0125349    659.52471    3056.1075 
  456000    827.43524   -892.56734            0   -878.87718    9230.8508     13.45396    13.353653    13.253679    2.4170442    661.38251    3054.2496 
  457000     750.2081   -894.10368            0   -881.69126    4771.0004     13.45396    13.353653    13.253679    2.2071539    663.23873    3052.3844 
  458000    877.20977   -895.58002            0   -881.06632    5826.4143     13.45396    13.353653    13.253679    2.4014148     665.1003    3050.5438 
  459000    836.04468   -892.96098            0   -879.12837     7508.636     13.45396    13.353653    13.253679    3.1482838    666.95479    3048.6708 
  460000     820.4293   -894.74424            0   -881.16999    2717.7445     13.45396    13.353653    13.253679    2.3837482     668.8094    3046.7984 
  461000    790.96925   -894.63559            0   -881.54877    4149.5637     13.45396    13.353653    13.253679    2.5286089    670.66458    3044.9287 
  462000     804.6274   -891.92219            0   -878.60939    8390.4072     13.45396    13.353653    13.253679    2.0127003     672.5197    3043.0588 
  463000    788.37426   -894.65893            0   -881.61504    4510.9646     13.45396    13.353653    13.253679    2.0782499    674.38042    3041.2142 
  464000    748.13169   -893.53929            0   -881.16123    4286.3314     13.45396    13.353653    13.253679    1.9368773    676.23714    3039.3515 
  465000    815.49289   -893.90472            0   -880.41215    4651.0208     13.45396    13.353653    13.253679    1.9182275    678.09201    3037.4807 
  466000    754.12233   -893.99714            0   -881.51996    5537.2303     13.45396    13.353653    13.253679    2.5246533    679.94595    3035.6057 
  467000    765.19127   -895.22028            0   -882.55996    5376.0091     13.45396    13.353653    13.253679    2.1079805     681.8012    3033.7367 
  468000    885.44945   -894.44976            0   -879.79973    5806.8396     13.45396    13.353653    13.253679    2.1575423    683.65747    3031.8723 
  469000    728.68043   -894.19323            0     -882.137    5619.0183     13.45396    13.353653    13.253679    2.9045956    685.52268    3030.0474 
  470000    744.23598    -895.0124            0   -882.69879    4504.0917     13.45396    13.353653    13.253679    1.9817327    687.37832    3028.1802 
  471000     744.6179   -893.23673            0    -880.9168    7549.2587     13.45396    13.353653    13.253679    2.3289328    689.23449    3026.3153 
  472000    840.70394   -893.50196            0   -879.59226    7494.3277     13.45396    13.353653    13.253679     2.806805    691.09085    3024.4514 
  473000     781.4915   -895.67821            0    -882.7482    2738.0774     13.45396    13.353653    13.253679    3.0094539    692.94564    3022.5806 
  474000    803.76451   -894.20833            0   -880.90981     6622.824     13.45396    13.353653    13.253679    2.0011855    694.80294    3020.7208 
  475000    804.89858   -893.73812            0   -880.42084     5453.015     13.45396    13.353653    13.253679    2.6302443    696.65868    3018.8543 
  476000    766.70936   -894.65459            0   -881.96915     2488.174     13.45396    13.353653    13.253679    2.2151415    698.52022    3017.0129 
  477000    772.33343   -895.81125            0   -883.03276    5276.3334     13.45396    13.353653    13.253679    2.6689833    700.37243    3015.1312 
  478000    806.64959   -893.38497            0   -880.03871    6794.3569     13.45396    13.353653    13.253679    2.6103424    702.22978    3013.2717 
  479000    743.52735    -894.0214            0   -881.71952    3522.4541     13.45396    13.353653    13.253679    2.1885685    704.08923    3011.4212 
  480000    742.95556   -895.37899            0   -883.08657    4026.3429     13.45396    13.353653    13.253679    2.5162758     705.9493    3009.5733 
  481000    863.27536   -894.00204            0   -879.71889    6188.7776     13.45396    13.353653    13.253679    2.1577055     707.8079    3007.7191 
  482000    698.26081   -893.55324            0   -882.00031    6466.8629     13.45396    13.353653    13.253679    2.6917686    709.66549    3005.8606 
  483000    796.75146   -893.94782            0   -880.76533    3293.0293     13.45396    13.353653    13.253679    1.9664419    711.54088    3004.0773 
  484000    753.96426   -892.09361            0   -879.61904    4939.0495     13.45396    13.353653    13.253679    3.7960635    713.39987    3002.2244 
  485000    774.82132   -894.79225            0    -881.9726    5778.9332     13.45396    13.353653    13.253679    2.2023938    715.25962    3000.3748 
  486000    870.33585   -893.15548            0   -878.75551    7604.7598     13.45396    13.353653    13.253679    1.9952364    717.11628    2998.5121 
  487000    936.65382   -894.85486            0   -879.35764    5490.8109     13.45396    13.353653    13.253679    1.9723444     718.9747    2996.6568 
  488000    789.17738   -894.78773            0   -881.73056    6574.3961     13.45396    13.353653    13.253679    2.6100383    720.83051    2994.7907 
  489000    880.81701   -893.45861            0   -878.88523     5907.382     13.45396    13.353653    13.253679    2.0912259      722.688    2992.9315 
  490000    879.59452   -894.24492            0   -879.69177    5656.4949     13.45396    13.353653    13.253679    2.7098807    724.54265    2991.0607 
  491000    837.98409   -894.94323            0   -881.07853    4132.8057     13.45396    13.353653    13.253679    2.2762437    726.39999     2989.201 
  492000      749.137   -894.28671            0   -881.89201    4862.8313     13.45396    13.353653    13.253679     3.014055    728.25771    2987.3429 
  493000    868.58912   -894.18087            0   -879.80981    6548.4211     13.45396    13.353653    13.253679    2.4312986    730.11341    2985.4765 
  494000    880.22823   -895.01043            0   -880.44679    6162.5057     13.45396    13.353653    13.253679    2.9517016    731.97833    2983.6477 
  495000    706.45245   -893.84947            0   -882.16101    3717.2462     13.45396    13.353653    13.253679     3.089482    733.83365    2981.7798 
  496000    750.94906   -892.46628            0    -880.0416    5172.3086     13.45396    13.353653    13.253679    2.6277311    735.68687    2979.9034 
  497000    801.75224   -893.81586            0   -880.55063    5268.0888     13.45396    13.353653    13.253679    3.1809427      737.545    2978.0469 
  498000    818.24749   -894.29462            0   -880.75648     6323.329     13.45396    13.353653    13.253679    2.2294302    739.40331    2976.1912 
  499000    787.03533   -893.71751            0   -880.69578    5327.2444     13.45396    13.353653    13.253679    2.4784303    741.25873    2974.3239 
  500000    772.42762   -893.43356            0   -880.65351    3867.4214     13.45396    13.353653    13.253679     2.088787    743.11552    2972.4621 
  501000    800.52709   -894.55749            0   -881.31253     3358.283     13.45396    13.353653    13.253679    2.4842939    744.97333    2970.6044 
  502000    807.88021    -895.0767            0   -881.71008    5908.3351     13.45396    13.353653    13.253679    2.6595394    746.83348     2968.756 
  503000    766.95986   -891.53735            0   -878.84777    5908.4383     13.45396    13.353653    13.253679    3.0587842    748.68964    2966.8917 
  504000    767.17252    -894.9146            0    -882.2215    5422.2077     13.45396    13.353653    13.253679    2.5691426    750.54572    2965.0272 
  505000    802.51985   -894.37319            0   -881.09526    6131.6447     13.45396    13.353653    13.253679    2.1641365      752.401    2963.1595 
  506000    810.60886   -892.85193            0   -879.44016    5456.6894     13.45396    13.353653    13.253679    2.9638445    754.25895    2961.3024 
  507000    673.33802    -894.2229            0   -883.08233    4599.5136     13.45396    13.353653    13.253679    2.2825216    756.11329    2959.4312 
  508000    871.91083   -894.73475            0   -880.30873    4382.8678     13.45396    13.353653    13.253679    2.3338045    757.96628    2957.5547 
  509000    879.19758   -894.89471            0   -880.34812    5284.3334     13.45396    13.353653    13.253679    2.5856238    759.82253    2955.6911 
  510000    694.45746   -895.37301            0   -883.88301    4729.6361     13.45396    13.353653    13.253679     1.986605    761.67367    2953.8076 
  511000    774.50929   -894.66529            0    -881.8508     7203.724     13.45396    13.353653    13.253679    2.3163477    763.52867    2951.9393 
  512000    820.45569   -893.26121            0   -879.68652     6105.252     13.45396    13.353653    13.253679    2.4901275    765.39173    2950.1021 
  513000    777.36725   -893.55869            0   -880.69691    3470.3582     13.45396    13.353653    13.253679    1.7051183    767.24836    2948.2401 
  514000    813.76539   -895.94529            0    -882.4813    2878.7391     13.45396    13.353653    13.253679    1.8327622    769.10491    2946.3778 
  515000    871.29964   -894.39287            0   -879.97695    4625.8777     13.45396    13.353653    13.253679    2.1807333    770.96117    2944.5143 
  516000    784.00177   -893.89065            0    -880.9191    6877.8865     13.45396    13.353653    13.253679    2.1668792    772.82174    2942.6674 
  517000    733.11987   -895.98834            0   -883.85865    6684.7235     13.45396    13.353653    13.253679    2.8961424    774.67881    2940.8071 
  518000    833.71655   -895.14531            0   -881.35122    6831.6343     13.45396    13.353653    13.253679    2.6253373    776.53566     2938.946 
  519000    825.31099   -894.02071            0   -880.36569    4576.2555     13.45396    13.353653    13.253679    1.8234018    778.39528    2937.0953 
  520000    759.33502    -894.9943            0   -882.43087    4853.0453     13.45396    13.353653    13.253679    2.8923272    780.25295    2935.2373 
  521000    769.03489   -894.40488            0   -881.68097    5226.1278     13.45396    13.353653    13.253679     2.158097     782.1084    2933.3709 
  522000    815.33663   -893.29878            0   -879.80879    2244.0643     13.45396    13.353653    13.253679    1.9747512    783.96765    2931.5188 
  523000    720.88707    -894.5548            0   -882.62751    5895.9498     13.45396    13.353653    13.253679    2.7358709    785.82399    2929.6559 
  524000    783.68023   -895.47254            0   -882.50632    2268.1941     13.45396    13.353653    13.253679    2.3417552    787.68027    2927.7927 
  525000    914.35809   -894.68519            0   -879.55687    3402.4241     13.45396    13.353653    13.253679    2.5641813    789.53784    2925.9343 
  526000    708.97535   -893.86988            0   -882.13967    4161.8679     13.45396    13.353653    13.253679     2.711951    791.39706    2924.0821 
  527000    770.43537   -894.06209            0   -881.31501    5135.2334     13.45396    13.353653    13.253679     4.251355    793.25301    2922.2178 
  528000    887.72561   -894.39338            0    -879.7057    6822.3235     13.45396    13.353653    13.253679    2.7264025    795.11373     2920.371 
  529000    721.96187   -894.21453            0   -882.26945    6017.0255     13.45396    13.353653    13.253679     2.159975    796.97063    2918.5102 
  530000    907.27784   -894.18561            0   -879.17443    3378.2406     13.45396    13.353653    13.253679    2.5985445    798.83213    2916.6662 
  531000    857.39632   -894.25616            0   -880.07028    3829.3384     13.45396    13.353653    13.253679    1.9857568    800.68836    2914.8029 
  532000     783.5085   -894.51066            0   -881.54727    4037.0558     13.45396    13.353653    13.253679    2.6268944    802.55531    2912.9785 
  533000    817.59559   -894.02601            0   -880.49864     4385.638     13.45396    13.353653    13.253679    2.1421169    804.41442    2911.1256 
  534000    916.67547   -892.79222            0   -877.62555    10102.757     13.45396    13.353653    13.253679    2.1027894    806.27174    2909.2663 
  535000    772.81909   -893.79539            0   -881.00887    3954.6913     13.45396    13.353653    13.253679    1.9410392    808.12849    2907.4048 
  536000    762.41542   -893.82692            0   -881.21252    4200.6547     13.45396    13.353653    13.253679     2.365887    809.98559    2905.5447 
  537000    959.76726   -894.13393            0    -878.2543    12232.322     13.45396    13.353653    13.253679    2.8622537    811.84151    2903.6803 
  538000    792.59698   -894.37227            0   -881.25852    3770.9066     13.45396    13.353653    13.253679    2.7941535     813.6971    2901.8148 
  539000    785.11747   -894.11056            0   -881.12056    4029.4864     13.45396    13.353653    13.253679    3.1463347    815.55072    2899.9423 
  540000    892.42106   -893.09166            0   -878.32628    9078.9147     13.45396    13.353653    13.253679    2.3442765    817.40685    2898.0788 
  541000    710.79972   -893.36296            0   -881.60256    5241.7347     13.45396    13.353653    13.253679    2.1127625    819.26008    2896.2051 
  542000    786.68919   -894.14477            0   -881.12876    4381.1733     13.45396    13.353653    13.253679     3.134551    821.11454    2894.3359 
  543000    845.56537   -892.28579            0   -878.29566    7400.2403     13.45396    13.353653    13.253679    3.0302184    822.97035    2892.4714 
  544000    822.77588   -895.34233            0   -881.72926    3795.6955     13.45396    13.353653    13.253679     2.242019    824.82575    2890.6056 
  545000    794.70084   -894.61855            0   -881.46998    2277.1848     13.45396    13.353653    13.253679    1.8710376    826.68018    2888.7363 
  546000    762.78221   -891.69978            0   -879.07932     7603.103     13.45396    13.353653    13.253679    2.6793004    828.54626    2886.9078 
  547000    682.98101   -894.11336            0   -882.81323    4650.3076     13.45396    13.353653    13.253679    2.3701231    830.40325    2885.0475 
  548000    758.05041   -893.41606            0   -880.87389    5688.8675     13.45396    13.353653    13.253679    2.1271103    832.25922    2883.1837 
  549000    789.37226   -893.05436            0   -879.99396    6050.6426     13.45396    13.353653    13.253679    2.0904539     834.1151    2881.3196 
  550000    731.35089   -895.06056            0   -882.96014    4018.8522     13.45396    13.353653    13.253679     1.951741    835.97032    2879.4533 
  551000    715.12168   -892.87429            0   -881.04238    5439.4997     13.45396    13.353653    13.253679    4.3846566    837.82595    2877.5885 
  552000    808.86063   -893.81915            0   -880.43631    9248.6248     13.45396    13.353653    13.253679    2.2778672    839.68522    2875.7361 
  553000    724.08212   -895.82943            0   -883.84927    6385.2844     13.45396    13.353653    13.253679    1.8672245    841.54147    2873.8734 
  554000    874.11793     -895.876            0   -881.41346    5279.6257     13.45396    13.353653    13.253679    3.4856942    843.39648    2872.0065 
  555000    833.16419   -894.03226            0   -880.24731    4319.1195     13.45396    13.353653    13.253679    2.2575243    845.25365     2870.147 
  556000    649.93192   -893.76351            0   -883.01019    4893.5088     13.45396    13.353653    13.253679    3.1671238    847.11034    2868.2859 
  557000    811.27386   -894.81645            0   -881.39368    5201.6816     13.45396    13.353653    13.253679    2.8766308     848.9653    2866.4189 
  558000    756.65232   -892.97221            0   -880.45317    8107.4798     13.45396    13.353653    13.253679    3.2691416    850.81911    2864.5482 
  559000    797.52941   -894.78234            0   -881.58698    4681.7123     13.45396    13.353653    13.253679    2.3742065    852.67792    2862.6943 
  560000    732.46287   -894.71081            0     -882.592     4516.129     13.45396    13.353653    13.253679    3.3253658    854.53507    2860.8348 
  561000    877.65346   -894.08046            0   -879.55942    5800.4024     13.45396    13.353653    13.253679    2.4458959     856.3897    2858.9669 
  562000    755.78898   -894.22517            0   -881.72041     7903.597     13.45396    13.353653    13.253679    2.3641105    858.24493    2857.1011 
  563000     706.1736     -895.956            0   -884.27215    3966.3519     13.45396    13.353653    13.253679    1.9219808    860.10185    2855.2409 
  564000     795.9073   -894.38768            0   -881.21916     4748.581     13.45396    13.353653    13.253679    3.1736458    861.95929    2853.3825 
  565000    813.14763   -893.10995            0   -879.65618    5747.8888     13.45396    13.353653    13.253679    2.4431308    863.81617    2851.5222 
  566000    754.28647   -895.04361            0   -882.56371    4808.2828     13.45396    13.353653    13.253679    2.9224017    865.67168    2849.6574 
  567000    741.50022   -893.04854            0   -880.78019    5872.4401     13.45396    13.353653    13.253679     2.187089    867.53123    2847.8059 
  568000    758.45729   -892.67882            0   -880.12992    2518.0354     13.45396    13.353653    13.253679     2.457331    869.38705    2845.9422 
  569000    831.03724   -895.71093            0   -881.96117    6399.2954     13.45396    13.353653    13.253679    2.5728645    871.24293    2844.0787 
  570000    762.28734   -893.45983            0   -880.84756    4410.1211     13.45396    13.353653    13.253679     2.565702     873.1008    2842.2218 
  571000    880.94814   -893.94909            0   -879.37354    7441.5886     13.45396    13.353653    13.253679    3.6826265    874.95804    2840.3627 
  572000    784.92452   -894.91862            0   -881.93181    2940.0799     13.45396    13.353653    13.253679    1.9570329     876.8218    2838.5248 
  573000    852.93544   -895.13977            0    -881.0277    6099.5629     13.45396    13.353653    13.253679    1.9903442    878.67693    2836.6589 
  574000    933.53155   -894.85487            0   -879.40931    5199.8027     13.45396    13.353653    13.253679    2.1885686    880.53405    2834.7995 
  575000    962.93872   -894.27261            0    -878.3405    5903.4408     13.45396    13.353653    13.253679    1.9801893    882.39255    2832.9445 
  576000    852.63462   -895.33444            0   -881.22734     5671.892     13.45396    13.353653    13.253679    2.1362469    884.24677    2831.0758 
  577000    868.77782   -894.73264            0   -880.35846     5839.231     13.45396    13.353653    13.253679    2.0279977     886.1028    2829.2129 
  578000    872.95095   -893.02789            0   -878.58465    6391.2945     13.45396    13.353653    13.253679    2.4163341    887.96268    2827.3624 
  579000    727.69355   -894.04232            0   -882.00241    6345.7818     13.45396    13.353653    13.253679    2.1086573    889.81825     2825.498 
  580000    825.97401   -893.46693            0   -879.80095    5599.3062     13.45396    13.353653    13.253679    2.5235619    891.67402    2823.6344 
  581000     836.8618   -893.54962            0   -879.70349    6196.7402     13.45396    13.353653    13.253679    2.4202236    893.53283    2821.7804 
  582000    788.27772   -895.43707            0   -882.39478    5504.1168     13.45396    13.353653    13.253679    1.7852537    895.39001    2819.9212 
  583000    881.70613   -894.06107            0   -879.47298    5385.6432     13.45396    13.353653    13.253679    3.3849128    897.24461     2818.054 
  584000    835.24715    -894.4718            0   -880.65239    3463.8035     13.45396    13.353653    13.253679    2.1853487    899.10274    2816.1978 
  585000    799.64742   -894.11708            0   -880.88668    2580.5917     13.45396    13.353653    13.253679    2.3365003    900.95778     2814.332 
  586000    781.46224   -893.97744            0   -881.04791    4124.4953     13.45396    13.353653    13.253679     2.276229    902.81417    2812.4705 
  587000    867.75316   -894.77049            0   -880.41325    6574.5543     13.45396    13.353653    13.253679    2.7781247    904.67146    2810.6117 
  588000     823.4734   -893.11601            0    -879.4914    6606.9417     13.45396    13.353653    13.253679    2.2702228    906.52992    2808.7566 
  589000    661.62478   -893.41081            0   -882.46403    7904.8982     13.45396    13.353653    13.253679    2.3418218      908.385    2806.8911 
  590000    847.93336   -893.55238            0   -879.52307    6844.9193     13.45396    13.353653    13.253679    2.5884123    910.24312    2805.0349 
  591000    807.94971   -893.36145            0   -879.99368    5861.8843     13.45396    13.353653    13.253679    2.0323498    912.10191    2803.1808 
  592000    829.08713   -895.74693            0   -882.02944    5269.0971     13.45396    13.353653    13.253679    2.9490635    913.95599    2801.3123 
  593000    847.70612   -893.46073            0   -879.43518    7710.2636     13.45396    13.353653    13.253679    2.4548479    915.80883      2799.44 
  594000     804.2327   -893.53051            0   -880.22424    7886.4789     13.45396    13.353653    13.253679    3.0645834     917.6646    2797.5767 
  595000    723.45683   -893.70887            0   -881.73906    6049.9707     13.45396    13.353653    13.253679    3.7959508    919.52708    2795.7339 
  596000    802.90473   -893.91738            0   -880.63308    8227.2463     13.45396    13.353653    13.253679    2.3795134    921.38183    2793.8675 
  597000    811.73856   -893.94577            0   -880.51532    5884.3854     13.45396    13.353653    13.253679    2.0987566    923.23725    2792.0032 
  598000    720.83737   -895.05035            0   -883.12388    6638.6439     13.45396    13.353653    13.253679     2.116604    925.09321    2790.1406 
  599000    782.43184   -893.61545            0   -880.66988    7232.9163     13.45396    13.353653    13.253679    2.0022747    926.94725    2788.2722 
  600000    811.21974   -893.69158            0   -880.26971     4095.985     13.45396    13.353653    13.253679    3.0997731    928.80337    2786.4101 
  601000    734.19226   -895.84676            0   -883.69933    2897.0501     13.45396    13.353653    13.253679    2.0070117    930.65829    2784.5445 
  602000    883.53586   -895.77999            0   -881.16163    2587.8977     13.45396    13.353653    13.253679    1.7077433    932.51249    2782.6767 
  603000    765.17758   -892.94646            0   -880.28637    5293.4022     13.45396    13.353653    13.253679    2.1503986    934.36711    2780.8103 
  604000     805.2487   -894.28195            0   -880.95887    6347.1225     13.45396    13.353653    13.253679    3.1210215    936.22277     2778.947 
  605000    698.10064   -894.34628            0   -882.79599    4340.7868     13.45396    13.353653    13.253679    2.1247763      938.075    2777.0735 
  606000    860.93019   -893.60221            0   -879.35787    3138.5383     13.45396    13.353653    13.253679    2.2520287    939.92945    2775.2067 
  607000    753.39929    -893.6436            0   -881.17838    8285.0181     13.45396    13.353653    13.253679    2.9972971    941.83003    2773.4758 
  608000    742.41036    -894.3652            0    -882.0818     1277.008     13.45396    13.353653    13.253679    1.8548224    943.68453    2771.6089 
  609000     759.8471   -893.25489            0     -880.683    7479.6925     13.45396    13.353653    13.253679    1.9875779     945.5418    2769.7501 
  610000    875.42875   -894.13814            0   -879.65391     6108.858     13.45396    13.353653    13.253679     2.068007    947.40124    2767.8977 
  611000    718.58196   -894.62577            0   -882.73662    4232.7751     13.45396    13.353653    13.253679    1.9170539    949.25624    2766.0324 
  612000    768.05063   -892.65737            0   -879.94974    5499.8061     13.45396    13.353653    13.253679    2.7818033    951.11849    2764.1881 
  613000    766.93254    -893.0177            0   -880.32858    4492.2693     13.45396    13.353653    13.253679     1.830631    952.97498    2762.3271 
  614000    781.99918   -895.17648            0   -882.23807    4857.1737     13.45396    13.353653    13.253679    1.9697218    954.83043    2760.4631 
  615000    676.39247    -893.9733            0   -882.78219     3288.744     13.45396    13.353653    13.253679    2.8403396    956.68685    2758.6019 
  616000    795.58141   -892.91503            0    -879.7519    6314.4144     13.45396    13.353653    13.253679    1.8933508    958.54318    2756.7405 
  617000    764.90212   -894.36721            0   -881.71168    5901.8425     13.45396    13.353653    13.253679     2.069043    960.40406    2754.8921 
  618000    696.92727   -894.05954            0   -882.52867    3335.7105     13.45396    13.353653    13.253679    2.0909992    962.26567    2753.0458 
  619000    815.51084   -894.17891            0   -880.68604    6498.1211     13.45396    13.353653    13.253679    2.5371018    964.13699    2751.2271 
  620000     853.5771   -894.75999            0    -880.6373    2562.3521     13.45396    13.353653    13.253679    2.3717001    965.99142    2749.3602 
  621000     742.3594   -894.41624            0   -882.13368    3782.0019     13.45396    13.353653    13.253679    2.8122823    967.84759    2747.4982 
  622000    779.30473   -894.05027            0   -881.15644     8059.849     13.45396    13.353653    13.253679    2.6895433    969.70108    2745.6287 
  623000    938.81353   -895.18665            0    -879.6537    5249.7176     13.45396    13.353653    13.253679    1.8629549    971.55659     2743.765 
  624000    799.66677   -895.25903            0   -882.02831    3212.3786     13.45396    13.353653    13.253679    1.8290581    973.41367    2741.9057 
  625000    797.78065   -894.68159            0   -881.48207    1829.0849     13.45396    13.353653    13.253679    1.7466373    975.26819    2740.0392 
  626000    826.10252   -893.54343            0   -879.87531    7817.0945     13.45396    13.353653    13.253679    2.7537988    977.12506    2738.1794 
  627000    862.94068   -893.79924            0   -879.52163    4576.9607     13.45396    13.353653    13.253679    2.3276832     978.9809    2736.3166 
  628000    730.76671   -894.42205            0   -882.33129    3803.0681     13.45396    13.353653    13.253679    1.8477668    980.83927     2734.461 
  629000    858.59237   -893.38381            0   -879.17814    5684.1467     13.45396    13.353653    13.253679    2.3910075    982.69413    2732.5956 
  630000    848.26315    -894.1585            0   -880.12373     6209.907     13.45396    13.353653    13.253679    2.4081111    984.55001    2730.7331 
  631000    775.08662   -894.55836            0   -881.73432    6647.9088     13.45396    13.353653    13.253679    1.9734948    986.40734    2728.8745 
  632000    809.03668   -894.19987            0   -880.81411    5430.7983     13.45396    13.353653    13.253679    2.7774819    988.26525    2727.0176 
  633000     834.3256   -893.16904            0   -879.36487    6158.6104     13.45396    13.353653    13.253679    2.1842029    990.15053    2725.2361 
  634000    809.50466   -895.92702            0   -882.53353    3587.3105     13.45396    13.353653    13.253679    2.1229138    992.00701     2723.375 
  635000    752.70207   -893.75019            0   -881.29651    4956.5675     13.45396    13.353653    13.253679    2.3691129    993.86689    2721.5234 
  636000    809.01886   -894.26393            0   -880.87847    4529.3842     13.45396    13.353653    13.253679    1.7276753    995.73189    2719.6856 
  637000    820.03386   -894.92239            0   -881.35468    5596.7085     13.45396    13.353653    13.253679    1.8017588    997.61753     2717.904 
  638000    729.98944   -894.48779            0   -882.40989    4544.4996     13.45396    13.353653    13.253679    2.6987675    999.49514    2716.1002 
  639000    828.03559   -893.21819            0   -879.51809    7385.0559     13.45396    13.353653    13.253679    3.9196847    1001.3707    2714.2906 
  640000    792.00412   -895.45287            0   -882.34893    5120.7486     13.45396    13.353653    13.253679    2.3170538    1003.2475    2712.4839 
  641000    779.74394   -894.93752            0   -882.03643    7842.8779     13.45396    13.353653    13.253679    2.0328034     1005.124    2710.6765 
  642000    861.98229   -894.16235            0    -879.9006    7249.8133     13.45396    13.353653    13.253679    2.0289109    1006.9999     2708.867 
  643000     731.8288   -895.32681            0   -883.21849    4009.3764     13.45396    13.353653    13.253679    2.3539544     1008.876    2707.0577 
  644000    747.32614   -894.08364            0   -881.71891    6960.3044     13.45396    13.353653    13.253679    1.8921149    1010.7483     2705.238 
  645000    744.44577   -892.82698            0    -880.5099    7999.7361     13.45396    13.353653    13.253679     2.086414    1012.6345    2703.4555 
  646000    780.27325   -895.89028            0   -882.98043    4583.4655     13.45396    13.353653    13.253679    1.9491328    1014.5025    2701.6239 
  647000    769.31874    -895.0489            0   -882.32029    5265.0679     13.45396    13.353653    13.253679    2.3733935    1016.3597    2699.7636 
  648000    814.98616   -894.16883            0   -880.68464    5810.3708     13.45396    13.353653    13.253679    2.5464673    1018.2187     2697.908 
  649000    834.62009   -894.84491            0   -881.03587    3881.9465     13.45396    13.353653    13.253679    2.1984653     1020.074    2696.0425 
  650000    770.34774   -895.48852            0   -882.74288    1802.9814     13.45396    13.353653    13.253679    2.3149834    1021.9287    2694.1758 
  651000    897.11079   -894.49185            0   -879.64888    7043.2951     13.45396    13.353653    13.253679    2.5075047    1023.7846    2692.3119 
  652000    845.79087   -894.69159            0   -880.69772    4599.9458     13.45396    13.353653    13.253679     2.333507     1025.639    2690.4443 
  653000    814.60451   -895.21534            0   -881.73746    4652.9346     13.45396    13.353653    13.253679    2.3264176    1027.4924     2688.574 
  654000    823.36479   -894.41385            0   -880.79104    7100.3817     13.45396    13.353653    13.253679    2.0765262    1029.3469    2686.7069 
  655000    889.16659   -893.24914            0   -878.53761     8179.793     13.45396    13.353653    13.253679    2.2272114    1031.2016    2684.8401 
  656000    734.32614   -893.62373            0   -881.47409     6212.833     13.45396    13.353653    13.253679    2.2471734    1033.0576    2682.9771 
  657000    708.00671   -893.22409            0   -881.50991    5389.8028     13.45396    13.353653    13.253679     2.958867    1034.9132    2681.1126 
  658000    767.11684   -891.12033            0   -878.42815    7522.1749     13.45396    13.353653    13.253679    2.3943498    1036.7758    2679.2664 
  659000    814.69248   -895.97505            0   -882.49572    3549.8788     13.45396    13.353653    13.253679    2.8551077    1038.6292    2677.3966 
  660000    847.69718   -894.38102            0   -880.35561    4475.9698     13.45396    13.353653    13.253679    1.7379889    1040.4806    2675.5216 
  661000    831.79748   -894.02934            0   -880.26701    5125.3195     13.45396    13.353653    13.253679    2.2001423    1042.3389    2673.6643 
  662000    715.12834   -894.52745            0   -882.69544    2650.2441     13.45396    13.353653    13.253679    2.3271219    1044.1929     2671.796 
  663000    888.16032   -895.39147            0   -880.69659     8142.709     13.45396    13.353653    13.253679    2.0359881    1046.0492    2669.9338 
  664000    804.44616   -893.73912            0   -880.42931    7759.0139     13.45396    13.353653    13.253679    2.3581463    1047.9019    2668.0624 
  665000    656.46908   -894.14877            0   -883.28729    5295.4942     13.45396    13.353653    13.253679    2.3372082    1049.7672     2666.223 
  666000    763.98444   -894.33276            0   -881.69241    2888.4345     13.45396    13.353653    13.253679    2.3481539    1051.6236    2664.3608 
  667000    815.73806    -893.7536            0   -880.25697    7922.6583     13.45396    13.353653    13.253679    2.9536779    1053.4785    2662.4951 
  668000    740.68722   -895.25638            0   -883.00149    2940.7662     13.45396    13.353653    13.253679    2.1342768    1055.3349    2660.6331 
  669000    772.87953   -894.49561            0   -881.70809    5593.7194     13.45396    13.353653    13.253679      3.57127    1057.1914    2658.7713 
  670000    785.47113   -893.56466            0   -880.56881    4318.2308     13.45396    13.353653    13.253679    2.5789832    1059.0465     2656.906 
  671000    846.78794   -895.42258            0   -881.41222    6413.6707     13.45396    13.353653    13.253679    2.1863035    1060.9029    2655.0441 
  672000    773.05429   -895.67711            0    -882.8867    2847.7241     13.45396    13.353653    13.253679    1.9669557    1062.7588    2653.1811 
  673000    823.87035   -893.26429            0   -879.63311    5044.1744     13.45396    13.353653    13.253679    1.8275063    1064.6167     2651.323 
  674000    774.38622   -893.92992            0   -881.11747     6296.288     13.45396    13.353653    13.253679    2.3231548    1066.4746    2649.4648 
  675000    700.81352   -895.94703            0   -884.35186    2002.5026     13.45396    13.353653    13.253679    2.2079202    1068.3284    2647.5964 
  676000    714.15261   -894.90934            0   -883.09348    5684.5205     13.45396    13.353653    13.253679    3.2598432    1070.1806    2645.7243 
  677000    860.85505    -894.3204            0    -880.0773    4425.6465     13.45396    13.353653    13.253679    2.6300295    1072.0372     2643.863 
  678000    733.78177   -893.18222            0   -881.04158    6522.6801     13.45396    13.353653    13.253679    1.8682868    1073.8936    2642.0013 
  679000    754.16215   -895.21439            0   -882.73655    2216.1072     13.45396    13.353653    13.253679    2.7520734    1075.7464    2640.1307 
  680000    764.14711   -892.69587            0   -880.05283     8207.474     13.45396    13.353653    13.253679    2.6639099    1077.6048    2638.2738 
  681000    710.43063   -893.27861            0   -881.52432    6471.9293     13.45396    13.353653    13.253679    2.7604608    1079.4603    2636.4098 
  682000    740.16767   -894.43717            0   -882.19088    4522.0066     13.45396    13.353653    13.253679    2.0164689    1081.3136    2634.5408 
  683000    889.50924   -893.82564            0   -879.10844    5075.8093     13.45396    13.353653    13.253679    2.6708272    1083.1694    2632.6775 
  684000    794.44487   -895.17533            0     -882.031    3947.8524     13.45396    13.353653    13.253679    2.6770134    1085.0245    2630.8128 
  685000    820.29451   -895.50478            0   -881.93276    4157.3478     13.45396    13.353653    13.253679    2.2053609    1086.8791    2628.9469 
  686000    824.65812   -893.56708            0   -879.92287    3220.5484     13.45396    13.353653    13.253679    3.3643472    1088.7312    2627.0748 
  687000    821.71667   -894.61567            0   -881.02012    3826.3939     13.45396    13.353653    13.253679    2.1632777    1090.5857    2625.2088 
  688000     771.9197    -895.1542            0   -882.38256     4889.272     13.45396    13.353653    13.253679     2.191129    1092.4408    2623.3442 
  689000    891.99457   -894.32952            0    -879.5712    4712.6248     13.45396    13.353653    13.253679    2.1767282    1094.2974    2621.4831 
  690000     778.6651   -893.98389            0   -881.10064     7832.866     13.45396    13.353653    13.253679    1.9642076    1096.1536    2619.6214 
  691000    795.20414   -895.02964            0   -881.87275    3990.0123     13.45396    13.353653    13.253679    2.9987243    1098.0078    2617.7546 
  692000    807.49032   -892.93213            0   -879.57196    4990.4397     13.45396    13.353653    13.253679    2.4945194     1099.863    2615.8903 
  693000    758.03017   -893.54975            0   -881.00791    4096.9625     13.45396    13.353653    13.253679    2.5843754    1101.7183    2614.0263 
  694000    743.14726   -894.48884            0   -882.19324    5442.8597     13.45396    13.353653    13.253679    2.0699392     1103.573    2612.1609 
  695000    860.07031   -892.72709            0   -878.49697    7298.7157     13.45396    13.353653    13.253679    2.6613052    1105.4281    2610.2966 
  696000    814.37576   -894.68936            0   -881.21527     7055.485     13.45396    13.353653    13.253679    2.3514212    1107.2892    2608.4465 
  697000    763.36374   -894.29272            0   -881.66263    2458.8597     13.45396    13.353653    13.253679    2.1141146    1109.1465    2606.5873 
  698000    911.97354     -893.465            0   -878.37613    7086.5453     13.45396    13.353653    13.253679    2.5080212    1111.0051     2604.731 
  699000    858.22069   -895.33451            0   -881.13499    3804.6947     13.45396    13.353653    13.253679    1.8036473    1112.8617    2602.8702 
  700000    856.44326   -895.33965            0   -881.16954    3610.2324     13.45396    13.353653    13.253679    1.9541355    1114.7282    2601.0325 
  701000    894.49365   -892.48619            0   -877.68653    7815.0899     13.45396    13.353653    13.253679    2.7710606    1116.5846    2599.1712 
  702000    798.85208   -893.98859            0   -880.77134    4472.6457     13.45396    13.353653    13.253679    1.9748918    1118.4385    2597.3039 
  703000    762.47628   -894.08175            0   -881.46635    3395.2502     13.45396    13.353653    13.253679    2.4949394     1120.294    2595.4407 
  704000    809.78174   -892.80602            0   -879.40794    4279.2599     13.45396    13.353653    13.253679     2.280502    1122.1519    2593.5828 
  705000    833.65374   -894.35754            0   -880.56449    6060.6133     13.45396    13.353653    13.253679    2.4050946    1124.0078    2591.7204 
  706000    786.75803   -894.93646            0   -881.91931    4051.3156     13.45396    13.353653    13.253679    1.8953154    1125.8617    2589.8535 
  707000    804.16664   -892.98543            0   -879.68025    2314.9734     13.45396    13.353653    13.253679    2.1023628    1127.7166    2587.9887 
  708000    764.36643   -890.33038            0   -877.68371     8004.781     13.45396    13.353653    13.253679    3.4958467    1129.5742    2586.1304 
  709000    716.71257    -893.1982            0   -881.33997    8573.9351     13.45396    13.353653    13.253679    2.3768413    1131.4312    2584.2706 
  710000    827.90527   -894.84564            0    -881.1477    5641.5017     13.45396    13.353653    13.253679    2.7110223    1133.2865    2582.4069 
  711000    850.05865   -892.53919            0   -878.47472     4998.157     13.45396    13.353653    13.253679    2.2251669    1135.1455    2580.5518 
  712000    885.94002   -895.22514            0     -880.567    5057.9929     13.45396    13.353653    13.253679    1.6235898    1137.0015    2578.6896 
  713000    729.72432   -893.53792            0   -881.46442    4980.0909     13.45396    13.353653    13.253679    2.2508718    1138.8584    2576.8297 
  714000    854.34934   -895.37343            0   -881.23796    6098.0688     13.45396    13.353653    13.253679    2.7764005    1140.7131    2574.9648 
  715000     798.6041   -892.44606            0   -879.23292    6676.8054     13.45396    13.353653    13.253679    2.9690788    1142.5753    2573.1167 
  716000    776.79112   -895.46916            0   -882.61692    3367.7775     13.45396    13.353653    13.253679    2.5810218    1144.4288    2571.2491 
  717000    815.24962   -894.66285            0    -881.1743    6062.0274     13.45396    13.353653    13.253679     2.523575    1146.2852     2569.388 
  718000     849.6777     -894.579            0   -880.52083    6710.9141     13.45396    13.353653    13.253679     2.308424    1148.1413    2567.5264 
  719000    779.09794   -893.94997            0   -881.05956     6848.275     13.45396    13.353653    13.253679    2.3551669    1149.9975    2565.6648 
  720000    787.85201   -894.99347            0   -881.95823    4285.4732     13.45396    13.353653    13.253679    2.7015544    1151.8518    2563.7992 
  721000    825.92164   -894.47197            0   -880.80685     1439.515     13.45396    13.353653    13.253679    2.4216815    1153.7071    2561.9358 
  722000    818.06683   -893.14853            0   -879.61337    7352.5221     13.45396    13.353653    13.253679     2.042205    1155.5635    2560.0748 
  723000    754.82926   -895.20936            0   -882.72049    3024.3222     13.45396    13.353653    13.253679     2.704738    1157.4185    2558.2106 
  724000    774.90888    -893.3416            0   -880.52051    7403.0091     13.45396    13.353653    13.253679    3.0169803    1159.2877    2556.3779 
  725000    883.04683   -894.83467            0    -880.2244    6876.4833     13.45396    13.353653    13.253679    2.5130032    1161.1452    2554.5195 
  726000    674.71061   -894.87625            0   -883.71296    3869.6611     13.45396    13.353653    13.253679    2.2979747    1163.0048    2552.6655 
  727000    814.12084   -894.00715            0   -880.53728    7457.8291     13.45396    13.353653    13.253679    3.6476005    1164.8612    2550.8045 
  728000    839.38264   -894.31159            0   -880.42375    6787.3996     13.45396    13.353653    13.253679    2.7340491    1166.7171    2548.9424 
  729000    751.95365   -895.87102            0   -883.42972    4033.3403     13.45396    13.353653    13.253679    2.2712917    1168.5734    2547.0812 
  730000    760.40589   -893.53952            0   -880.95838    6455.4902     13.45396    13.353653    13.253679    2.1679099    1170.4296      2545.22 
  731000    894.37906   -895.21701            0   -880.41924     5564.981     13.45396    13.353653    13.253679    1.9239874    1172.2913    2543.3705 
  732000    824.81378    -895.3368            0   -881.69001    4199.9638     13.45396    13.353653    13.253679    2.4166548    1174.1482    2541.5108 
  733000    751.90559    -894.3386            0   -881.89809    7782.2808     13.45396    13.353653    13.253679    2.4503926    1176.0026    2539.6454 
  734000    831.56104   -893.01876            0   -879.26033    10811.796     13.45396    13.353653    13.253679    2.3840339    1177.8593    2537.7851 
  735000    788.03167   -894.47405            0   -881.43583     3310.581     13.45396    13.353653    13.253679    2.3135148    1179.7147    2535.9221 
  736000    804.42517   -894.49703            0   -881.18758    5569.9305     13.45396    13.353653    13.253679    1.9760032    1181.5706    2534.0602 
  737000    876.51115   -894.20278            0   -879.70064    5545.2103     13.45396    13.353653    13.253679    3.3907619    1183.4355    2532.2176 
  738000    886.95661   -892.03375            0   -877.35879    8862.1028     13.45396    13.353653    13.253679    2.3308023    1185.2926    2530.3582 
  739000    856.11149   -895.19856            0   -881.03394    4143.6529     13.45396    13.353653    13.253679    2.5450254    1187.1514    2528.5024 
  740000    826.98844   -894.33096            0   -880.64819    3121.8506     13.45396    13.353653    13.253679     2.169243     1189.017     2526.661 
  741000    859.64102    -892.1728            0   -877.94978    11736.487     13.45396    13.353653    13.253679    3.1319003    1190.8717    2524.7966 
  742000    751.55211   -894.24222            0   -881.80756    4440.0656     13.45396    13.353653    13.253679     2.062912    1192.7297    2522.9392 
  743000    846.87295   -894.44982            0   -880.43805    4063.1088     13.45396    13.353653    13.253679    2.9932527    1194.5871    2521.0804 
  744000    937.70266   -894.57937            0    -879.0648    3631.5334     13.45396    13.353653    13.253679    1.9469278    1196.4439    2519.2205 
  745000    760.82265   -895.01818            0   -882.43014    3404.8073     13.45396    13.353653    13.253679    2.1188567    1198.3027    2517.3646 
  746000    836.56976   -893.52717            0   -879.68588    2940.4031     13.45396    13.353653    13.253679    2.3478082    1200.1607    2515.5072 
  747000    810.70041   -893.88955            0   -880.47627    5528.6343     13.45396    13.353653    13.253679     2.105035     1202.017    2513.6461 
  748000    797.81386   -894.30526            0    -881.1052    4996.7921     13.45396    13.353653    13.253679    2.6285137    1203.8769    2511.7925 
  749000    874.27453    -895.0427            0   -880.57757     6105.859     13.45396    13.353653    13.253679    2.2484319    1205.7324    2509.9298 
  750000    813.49882   -893.41437            0   -879.95479    7457.0939     13.45396    13.353653    13.253679    2.1968477    1207.5902    2508.0719 
  751000    766.80531   -895.52841            0   -882.84138    3979.3809     13.45396    13.353653    13.253679    1.7273414    1209.4464    2506.2108 
  752000    879.83205   -894.49655            0   -879.93947    9988.9254     13.45396    13.353653    13.253679    2.8193401    1211.3023    2504.3488 
  753000    756.72656   -893.13636            0    -880.6161     6516.196     13.45396    13.353653    13.253679    2.6974457    1213.1612    2502.4932 
  754000    792.75841   -895.16091            0   -882.04448    3453.1272     13.45396    13.353653    13.253679    1.8127535    1215.0192    2500.6359 
  755000    842.40677   -892.25884            0   -878.32097    5841.0295     13.45396    13.353653    13.253679    2.1064807    1216.8743    2498.7723 
  756000    791.60316   -894.22682            0   -881.12951    3714.4961     13.45396    13.353653    13.253679    1.9795103    1218.7332    2496.9168 
  757000    784.86129   -893.94465            0   -880.95889      5236.17     13.45396    13.353653    13.253679    2.8210107    1220.5897    2495.0562 
  758000    882.97588    -891.4885            0    -876.8794    10016.983     13.45396    13.353653    13.253679    2.6642162    1222.4485    2493.2003 
  759000    813.47096   -893.53531            0   -880.07619     9565.698     13.45396    13.353653    13.253679    2.2627713     1224.309    2491.3481 
  760000    774.77406   -894.42638            0   -881.60751    3595.6109     13.45396    13.353653    13.253679    2.1275248    1226.1653    2489.4872 
  761000    859.31437   -894.68163            0   -880.46402    5702.2498     13.45396    13.353653    13.253679    3.1851883    1228.0299    2487.6429 
  762000    827.04724   -893.42858            0   -879.74483    7421.2205     13.45396    13.353653    13.253679     2.186299    1229.8885    2485.7868 
  763000     771.9173   -895.03987            0   -882.26826    3969.6793     13.45396    13.353653    13.253679    2.3190233    1231.7491    2483.9345 
  764000    771.04055   -893.25752            0   -880.50042    6377.4845     13.45396    13.353653    13.253679    2.3627639     1233.607    2482.0768 
  765000      756.356   -893.08486            0   -880.57073    8415.6553     13.45396    13.353653    13.253679     2.372677    1235.4631    2480.2153 
  766000    773.67526   -893.78682            0   -880.98614    7076.1893     13.45396    13.353653    13.253679    2.2869712    1237.3198    2478.3553 
  767000    847.40701    -895.5409            0   -881.52029    2752.1501     13.45396    13.353653    13.253679    2.0360502    1239.1866    2476.5154 
  768000    772.95026    -892.9105            0   -880.12181     5211.508     13.45396    13.353653    13.253679     2.698631     1241.045    2474.6586 
  769000    839.81334   -893.63079            0   -879.73583    4289.0236     13.45396    13.353653    13.253679    2.3254911    1242.9063    2472.8075 
  770000    768.74999    -895.0417            0    -882.3225    5285.4501     13.45396    13.353653    13.253679    2.6641491    1244.7608    2470.9431 
  771000    853.18726   -894.02174            0    -879.9055    5422.0928     13.45396    13.353653    13.253679    2.3093567    1246.6184    2469.0847 
  772000    812.19007   -894.18837            0   -880.75045    5401.8082     13.45396    13.353653    13.253679    2.1380709    1248.4751    2467.2247 
  773000    710.51675   -894.28946            0   -882.53375     5450.978     13.45396    13.353653    13.253679    2.2895307    1250.3318    2465.3646 
  774000    869.59603   -893.97296            0   -879.58523    3597.4167     13.45396    13.353653    13.253679    2.7451106    1252.1907    2463.5087 
  775000    863.91519   -895.34827            0   -881.05453    6892.2554     13.45396    13.353653    13.253679    2.4225845    1254.0484    2461.6506 
  776000    749.80352   -894.17114            0   -881.76542    7028.6579     13.45396    13.353653    13.253679    2.5475392    1255.9057    2459.7917 
  777000    816.40264   -894.63908            0   -881.13145    6180.3918     13.45396    13.353653    13.253679    2.1052611    1257.7622    2457.9311 
  778000    846.30297   -894.21405            0   -880.21172    5592.3174     13.45396    13.353653    13.253679    2.2837199    1259.6187    2456.0707 
  779000    826.56719   -895.19671            0   -881.52091    6529.4121     13.45396    13.353653    13.253679    2.0617434    1261.4735    2454.2068 
  780000    757.93944   -895.19362            0   -882.65329    5143.5925     13.45396    13.353653    13.253679    2.2582819    1263.3321    2452.3506 
  781000    763.05624   -892.04967            0   -879.42468    9130.0449     13.45396    13.353653    13.253679    3.3901625    1265.1869    2450.4868 
  782000    707.49894   -893.58784            0   -881.88206    8192.2094     13.45396    13.353653    13.253679    2.2515514    1267.0422    2448.6241 
  783000    792.89407   -894.03215            0   -880.91348    4054.6065     13.45396    13.353653    13.253679    2.3315415    1268.8994     2446.765 
  784000    759.50566   -892.07456            0   -879.50831    7626.2401     13.45396    13.353653    13.253679    2.6877681    1270.7585    2444.9097 
  785000    784.95314   -895.01871            0   -882.03143    7322.4216     13.45396    13.353653    13.253679    1.8894353    1272.6174    2443.0538 
  786000    875.68704   -893.43569            0   -878.94719    6457.2783     13.45396    13.353653    13.253679    2.3805577     1274.474    2441.1937 
  787000    856.45916   -893.78329            0   -879.61292    7563.4242     13.45396    13.353653    13.253679    2.8821956    1276.3326    2439.3373 
  788000    802.62815   -894.92972            0   -881.64999     6465.616     13.45396    13.353653    13.253679    2.4460525    1278.1886     2437.476 
  789000    890.73643   -893.53354            0   -878.79604     5028.926     13.45396    13.353653    13.253679    2.1872735    1280.0474    2435.6199 
  790000    783.59133   -892.72113            0   -879.75638    6350.8376     13.45396    13.353653    13.253679    2.5748103    1281.9061    2433.7638 
  791000    739.67753   -893.40026            0   -881.16208    6538.1088     13.45396    13.353653    13.253679    2.6482362    1283.7646    2431.9072 
  792000    881.43113    -893.9224            0   -879.33886    6045.1591     13.45396    13.353653    13.253679    2.3933641    1285.6197    2430.0442 
  793000     835.6402   -893.04664            0   -879.22072    4129.0579     13.45396    13.353653    13.253679    2.3265103    1287.4803    2428.1916 
  794000    821.15373    -894.7722            0   -881.18597     7437.161     13.45396    13.353653    13.253679     2.519252    1289.3404     2426.338 
  795000     704.9923   -891.89684            0   -880.23254    6937.0054     13.45396    13.353653    13.253679    3.7663979    1291.1959    2424.4758 
  796000    869.10101   -892.84984            0   -878.47031    7053.0634     13.45396    13.353653    13.253679    2.4893843    1293.0555    2422.6212 
  797000    805.49993   -895.17785            0   -881.85061    7454.0065     13.45396    13.353653    13.253679    2.0190151    1294.9126     2420.762 
  798000    846.44577   -893.97414            0   -879.96944    4308.1602     13.45396    13.353653    13.253679    2.2398004    1296.7684    2418.9003 
  799000    918.59774   -893.70746            0   -878.50898    8503.5255     13.45396    13.353653    13.253679    2.8453124    1298.6247    2417.0397 
  800000    779.65135   -895.15868            0   -882.25912    3748.6941     13.45396    13.353653    13.253679    1.8174073    1300.4786    2415.1746 
  801000    789.13091   -893.02898            0   -879.97257    4291.0246     13.45396    13.353653    13.253679     1.927896     1302.338    2413.3196 
  802000    775.93235   -892.92091            0   -880.08288    6279.3238     13.45396    13.353653    13.253679    2.2521632    1304.2013    2411.4719 
  803000    732.60859   -894.89838            0   -882.77715    4068.4248     13.45396    13.353653    13.253679    2.6246568    1306.1153    2409.7178 
  804000    833.30827   -893.75525            0   -879.96791    7693.8284     13.45396    13.353653    13.253679    2.0121099     1307.972    2407.8575 
  805000    728.27125   -893.75713            0   -881.70766    5069.3195     13.45396    13.353653    13.253679    2.4532983    1309.8308    2406.0012 
  806000    741.65197   -894.78474            0   -882.51389    4615.7819     13.45396    13.353653    13.253679    2.4122816    1311.6868    2404.1398 
  807000    840.67224   -894.75421            0   -880.84504     5649.541     13.45396    13.353653    13.253679    2.6683564    1313.5455    2402.2833 
  808000    767.12336   -893.69122            0   -880.99893    6434.8294     13.45396    13.353653    13.253679    2.4240755    1315.4006    2400.4204 
  809000    752.01175   -895.63745            0   -883.19519    4296.0071     13.45396    13.353653    13.253679     2.909917    1317.2554    2398.5568 
  810000     820.9876   -893.62312            0   -880.03963    9603.4898     13.45396    13.353653    13.253679    2.2321665    1319.1176    2396.7066 
  811000    776.82373   -893.92166            0   -881.06888    5666.7124     13.45396    13.353653    13.253679    2.3675228    1320.9745    2394.8468 
  812000    694.31146   -896.14875            0   -884.66116    2745.1532     13.45396    13.353653    13.253679    2.6372944    1322.8324    2392.9889 
  813000    784.92101   -894.69161            0   -881.70486    3631.9709     13.45396    13.353653    13.253679     2.167841    1324.6873    2391.1256 
  814000    787.03767    -893.1308            0   -880.10903    3789.8411     13.45396    13.353653    13.253679    1.9949817    1326.5454    2389.2681 
  815000    812.75363   -894.46018            0   -881.01292    5633.9445     13.45396    13.353653    13.253679    2.3311487     1328.401     2387.406 
  816000     734.2561   -895.03511            0   -882.88662    3705.2849     13.45396    13.353653    13.253679    2.5914895    1330.2571    2385.5448 
  817000    857.13305   -893.64342            0    -879.4619    6025.4046     13.45396    13.353653    13.253679    1.8980081    1332.1148    2383.6866 
  818000    769.64213   -894.61303            0   -881.87907    4604.4428     13.45396    13.353653    13.253679    3.0431097    1333.9745    2381.8319 
  819000    924.04873   -895.74425            0   -880.45559    5081.2719     13.45396    13.353653    13.253679    2.0812936    1335.8308    2379.9711 
  820000    821.03448   -893.30446            0    -879.7202    1968.2517     13.45396    13.353653    13.253679    2.2441732    1337.6881    2378.1121 
  821000    879.69687   -896.20912            0   -881.65427    3827.2871     13.45396    13.353653    13.253679    2.4839037    1339.5557    2376.2716 
  822000    845.65311   -894.50645            0   -880.51487    5057.7294     13.45396    13.353653    13.253679    2.7532929    1341.4108    2374.4085 
  823000    831.63658   -894.12582            0   -880.36614    10313.062     13.45396    13.353653    13.253679    2.7408125    1343.2673    2372.5481 
  824000    793.63669   -894.43713            0   -881.30617    2012.2525     13.45396    13.353653    13.253679    1.8221661    1345.1253    2370.6905 
  825000    760.66926   -893.60037            0   -881.01487    7519.7208     13.45396    13.353653    13.253679     2.367292    1346.9823    2368.8309 
  826000    866.37524   -893.24502            0   -878.91058    7887.5255     13.45396    13.353653    13.253679    3.0708864    1348.8428    2366.9775 
  827000    749.92735   -894.73566            0   -882.32788    4825.8269     13.45396    13.353653    13.253679    2.1843282    1350.7034    2365.1243 
  828000    802.93076   -893.86173            0   -880.57701    2235.9033     13.45396    13.353653    13.253679    2.1755858    1352.5642    2363.2716 
  829000    872.14816   -892.52107            0   -878.09112     6570.505     13.45396    13.353653    13.253679    3.2700103    1354.4199    2361.4098 
  830000    816.67461   -894.36605            0   -880.85392    6568.6529     13.45396    13.353653    13.253679    2.6476928    1356.2785    2359.5531 
  831000    778.28698   -894.84321            0   -881.96622    5281.1568     13.45396    13.353653    13.253679    2.0570141    1358.1342    2357.6913 
  832000    880.79768   -893.26798            0   -878.69492    7695.9995     13.45396    13.353653    13.253679    1.9989997    1359.9907    2355.8308 
  833000    797.47973   -894.47302            0   -881.27848    3201.0532     13.45396    13.353653    13.253679    2.6214974    1361.8472    2353.9706 
  834000    820.75502    -894.8044            0   -881.22476    6469.2593     13.45396    13.353653    13.253679    2.3699946    1363.7042    2352.1111 
  835000     950.0622    -895.4778            0   -879.75874    6008.3066     13.45396    13.353653    13.253679    2.1750242    1365.5635    2350.2556 
  836000     760.9412   -893.89446            0   -881.30446    3900.0375     13.45396    13.353653    13.253679    2.6753229    1367.4221    2348.3988 
  837000    778.00545   -895.25827            0   -882.38594    5383.2221     13.45396    13.353653    13.253679    2.2438439    1369.2775    2346.5366 
  838000    822.76238   -893.12356            0   -879.51071    7379.1865     13.45396    13.353653    13.253679    2.2742663    1371.1352    2344.6783 
  839000    778.01314   -894.13785            0   -881.26539    4424.8841     13.45396    13.353653    13.253679    2.2246607    1372.9938    2342.8216 
  840000     729.5723   -894.46589            0   -882.39489    4955.2853     13.45396    13.353653    13.253679    1.6258755    1374.8524    2340.9649 
  841000    860.73783   -894.30887            0    -880.0677    7566.7283     13.45396    13.353653    13.253679    2.4467006    1376.7101    2339.1066 
  842000     847.7256   -894.56754            0   -880.54167    5108.0845     13.45396    13.353653    13.253679    2.8184759    1378.5711    2337.2539 
  843000    699.78493   -894.02748            0   -882.44933    4627.2274     13.45396    13.353653    13.253679    2.3743333    1380.4267    2335.3921 
  844000     813.9265   -894.07586            0    -880.6092    6306.2656     13.45396    13.353653    13.253679    2.0221818    1382.2848    2333.5346 
  845000    780.06477   -893.48941            0   -880.58301    4677.9124     13.45396    13.353653    13.253679    2.6243448    1384.1395    2331.6712 
  846000    733.58668   -896.29144            0   -884.15403    4771.7785     13.45396    13.353653    13.253679    1.8573217    1385.9963    2329.8115 
  847000    828.16472   -894.81621            0   -881.11398    2334.2677     13.45396    13.353653    13.253679    2.4700689    1387.8515    2327.9491 
  848000    812.61411   -893.51139            0   -880.06645    3891.4915     13.45396    13.353653    13.253679    4.1553752    1389.7106    2326.0932 
  849000    772.32893   -895.85965            0   -883.08124    3787.2749     13.45396    13.353653    13.253679    1.8504599    1391.5664    2324.2318 
  850000    807.34787   -894.48753            0   -881.12972     3549.079     13.45396    13.353653    13.253679    1.7542988     1393.422      2322.37 
  851000    845.33801   -894.58307            0    -880.5967     6844.039     13.45396    13.353653    13.253679    2.5051651    1395.2803    2320.5128 
  852000    765.30121   -894.90851            0   -882.24637    3959.0973     13.45396    13.353653    13.253679    1.7772223    1397.1377     2318.654 
  853000     761.5831   -895.19394            0   -882.59332    6950.8103     13.45396    13.353653    13.253679    2.0319986    1398.9972    2316.7989 
  854000    761.76159   -892.43644            0   -879.83287    8386.4852     13.45396    13.353653    13.253679    3.0742914     1400.854    2314.9391 
  855000    777.39026   -895.17094            0   -882.30879    6391.9084     13.45396    13.353653    13.253679    2.9003422    1402.7093    2313.0769 
  856000    831.36504   -895.39242            0   -881.63724    4596.4533     13.45396    13.353653    13.253679    2.0116247     1404.571    2311.2254 
  857000    840.99088   -894.10449            0   -880.19005    6193.8596     13.45396    13.353653    13.253679    2.1884802    1406.4321    2309.3726 
  858000    811.91648   -895.76117            0   -882.32777    4936.8789     13.45396    13.353653    13.253679    1.9619136    1408.2929    2307.5196 
  859000    893.58634   -893.76883            0   -878.98418    8380.1833     13.45396    13.353653    13.253679    2.9618705    1410.1511    2305.6621 
  860000    856.05212   -894.79991            0   -880.63627    4520.5671     13.45396    13.353653    13.253679    1.6232208    1412.0123    2303.8096 
  861000     741.6894   -893.65136            0   -881.37989    4762.3197     13.45396    13.353653    13.253679    2.2742743    1413.8694    2301.9504 
  862000    848.19244   -894.59997            0   -880.56637    8258.4526     13.45396    13.353653    13.253679     2.367092    1415.7261    2300.0905 
  863000    871.68302   -892.75863            0   -878.33637    6888.3575     13.45396    13.353653    13.253679    2.0069562    1417.5914    2298.2446 
  864000    710.99424    -893.5236            0   -881.75999    5657.2061     13.45396    13.353653    13.253679    2.3076852    1419.4481    2296.3845 
  865000    836.06868   -894.62481            0    -880.7918    6568.6418     13.45396    13.353653    13.253679    2.7477113    1421.3062     2294.527 
  866000    877.22335   -892.93857            0   -878.42465    6745.8459     13.45396    13.353653    13.253679    2.5253027    1423.1648    2292.6702 
  867000    752.66117     -892.985            0     -880.532    7299.6553     13.45396    13.353653    13.253679    2.8547819    1425.0284    2290.8215 
  868000    761.76112   -894.70107            0    -882.0975    4636.0779     13.45396    13.353653    13.253679    2.2491428    1426.8866     2288.964 
  869000    825.87563   -893.84848            0   -880.18413    6288.4804     13.45396    13.353653    13.253679    2.1731398    1428.7417    2287.1015 
  870000     860.9767   -894.18525            0   -879.94014     7186.977     13.45396    13.353653    13.253679    2.9249227    1430.5968    2285.2391 
  871000    782.71658   -895.21506            0   -882.26478    3254.3051     13.45396    13.353653    13.253679    1.9904534    1432.4531    2283.3786 
  872000    834.19671   -894.40745            0   -880.60542    5225.2903     13.45396    13.353653    13.253679    2.2938835    1434.3103    2281.5196 
  873000    834.93185   -893.89275            0   -880.07855    9039.6094     13.45396    13.353653    13.253679    2.4802144    1436.1684    2279.6618 
  874000     803.5285   -896.06074            0   -882.76613    3651.1723     13.45396    13.353653    13.253679    1.9725967    1438.0245     2277.801 
  875000     896.0208   -894.62372            0   -879.79879    6263.1466     13.45396    13.353653    13.253679     2.302995    1439.8808    2275.9407 
  876000    785.50777   -893.55673            0   -880.56027    6649.6836     13.45396    13.353653    13.253679    1.8887384    1441.7354    2274.0775 
  877000    760.88248   -894.00915            0   -881.42012    3418.6797     13.45396    13.353653    13.253679    2.7764943    1443.5919    2272.2174 
  878000    851.34869   -894.88291            0   -880.79709     4237.317     13.45396    13.353653    13.253679    2.0248741    1445.4472    2270.3553 
  879000    888.01973   -894.52645            0    -879.8339    7011.6547     13.45396    13.353653    13.253679    2.6058448    1447.3045    2268.4966 
  880000    696.55643   -894.08659            0   -882.56185     3414.301     13.45396    13.353653    13.253679    1.8644054    1449.1597    2266.6344 
  881000    764.60958   -893.17318            0   -880.52249    5840.0542     13.45396    13.353653    13.253679    2.2204909    1451.0169    2264.7753 
  882000    794.09106   -893.18525            0   -880.04678    7546.7419     13.45396    13.353653    13.253679    3.2877442    1452.8765    2262.9202 
  883000    870.13246    -896.5903            0    -882.1937    3913.1557     13.45396    13.353653    13.253679    1.4758976     1454.749     2261.085 
  884000    854.34382   -893.51882            0   -879.38345    4701.4733     13.45396    13.353653    13.253679    2.4610489    1456.6231    2259.2521 
  885000     818.4373    -893.9909            0   -880.44961    6556.5767     13.45396    13.353653    13.253679    2.4139539    1458.4817    2257.3952 
  886000    745.07716   -894.19961            0   -881.87208    4376.2122     13.45396    13.353653    13.253679    1.9652211    1460.3401     2255.538 
  887000    804.68464   -893.67551            0   -880.36176    7395.9864     13.45396    13.353653    13.253679    2.0157858    1462.2041    2253.6894 
  888000    910.02541    -891.6847            0   -876.62806    10822.945     13.45396    13.353653    13.253679    3.3270804     1464.063    2251.8329 
  889000     852.1451   -894.84238            0   -880.74339     6455.544     13.45396    13.353653    13.253679    2.4676575    1465.9203     2249.974 
  890000    825.13417   -895.42315            0   -881.77105    5579.4022     13.45396    13.353653    13.253679    2.0012936    1467.7751    2248.1112 
  891000    938.16421   -894.08494            0   -878.56273    7252.9002     13.45396    13.353653    13.253679    3.7333691    1469.6363    2246.2582 
  892000    808.99103   -894.57022            0   -881.18523      6771.12     13.45396    13.353653    13.253679    2.4009635    1471.4922    2244.3972 
  893000    767.65453   -893.71968            0   -881.01861     7490.357     13.45396    13.353653    13.253679    1.9895289    1473.3507    2242.5402 
  894000    802.75524   -893.22622            0    -879.9444    7417.1681     13.45396    13.353653    13.253679    2.3942523    1475.2078    2240.6809 
  895000     756.8424   -894.00754            0   -881.48535    5346.9708     13.45396    13.353653    13.253679    2.1498402    1477.0657    2238.8229 
  896000     751.3122   -894.79454            0   -882.36386    3753.8531     13.45396    13.353653    13.253679    2.2935159    1478.9189    2236.9577 
  897000    856.08721   -893.41787            0   -879.25365    5815.5423     13.45396    13.353653    13.253679    2.1960416     1480.776    2235.0985 
  898000    782.34697   -894.62412            0   -881.67995    3815.0932     13.45396    13.353653    13.253679    2.2697325    1482.6342     2233.241 
  899000    790.95497   -894.27923            0   -881.19265     4847.382     13.45396    13.353653    13.253679    2.0440467    1484.4909    2231.3812 
  900000    834.85664   -894.07804            0   -880.26509    5619.0382     13.45396    13.353653    13.253679    2.9588374    1486.3471    2229.5206 
  901000     819.1092     -894.639            0   -881.08659    5346.1975     13.45396    13.353653    13.253679     2.474932    1488.2025    2227.6589 
  902000    819.59162   -894.64523            0   -881.08485    3503.3793     13.45396    13.353653    13.253679    2.1214248    1490.0611     2225.802 
  903000    836.58611   -892.45081            0   -878.60924     9265.652     13.45396    13.353653    13.253679    2.8658861    1491.9197     2223.945 
  904000     789.9602   -894.85022            0    -881.7801    8097.9572     13.45396    13.353653    13.253679    2.0928792    1493.7771    2222.0864 
  905000    845.84797   -895.03232            0   -881.03751     4431.869     13.45396    13.353653    13.253679    2.3727278    1495.6315    2220.2232 
  906000    898.27335   -893.93738            0   -879.07518    3882.1971     13.45396    13.353653    13.253679     2.417989    1497.4924    2218.3697 
  907000     748.3867   -895.23071            0   -882.84843    5226.7561     13.45396    13.353653    13.253679    2.1885506     1499.349    2216.5098 
  908000    755.30262   -892.64066            0   -880.14396    7114.2785     13.45396    13.353653    13.253679    2.5324523    1501.2055    2214.6496 
  909000    801.06455   -893.82139            0   -880.56754    6655.1872     13.45396    13.353653    13.253679    2.7869276    1503.0623    2212.7901 
  910000    653.54381   -894.39045            0   -883.57737    4094.5356     13.45396    13.353653    13.253679     1.996567    1504.9176    2210.9284 
  911000     843.4969   -894.79064            0   -880.83473    6913.9967     13.45396    13.353653    13.253679    1.9053642    1506.7724    2209.0658 
  912000    856.80821   -894.55043            0   -880.37428    6420.3498     13.45396    13.353653    13.253679    2.7082135    1508.6294    2207.2066 
  913000    712.71607     -895.131            0    -883.3389    2495.4964     13.45396    13.353653    13.253679    2.2970154    1510.4845    2205.3445 
  914000    774.64795   -893.97569            0   -881.15891    8656.6409     13.45396    13.353653    13.253679    2.8186012    1512.3416    2203.4854 
  915000    802.39452   -893.58301            0   -880.30716    5769.8034     13.45396    13.353653    13.253679    3.3760558    1514.1998    2201.6279 
  916000    724.97589   -894.50012            0   -882.50518    4604.9965     13.45396    13.353653    13.253679    1.9903045    1516.0559    2199.7674 
  917000    727.51135   -893.46031            0   -881.42341    4537.9194     13.45396    13.353653    13.253679    2.3727279    1517.9145    2197.9105 
  918000    856.11196   -894.17083            0    -880.0062    8820.1247     13.45396    13.353653    13.253679    2.1227724    1519.7697    2196.0486 
  919000    808.91855     -895.173            0    -881.7892    6984.3394     13.45396    13.353653    13.253679    2.4769875    1521.6288    2194.1925 
  920000    744.93242   -897.00449            0   -884.67936    4322.1281     13.45396    13.353653    13.253679    2.3584053    1523.4831    2192.3293 
  921000    783.74547   -894.38251            0   -881.41521    5350.7829     13.45396    13.353653    13.253679    2.9671719    1525.3387    2190.4681 
  922000     818.0672   -893.63407            0   -880.09891    5834.6479     13.45396    13.353653    13.253679      2.71814    1527.1946    2188.6074 
  923000    700.65156   -894.71207            0   -883.11958    4635.2824     13.45396    13.353653    13.253679    2.1333689    1529.0511    2186.7475 
  924000     795.7687     -894.372            0   -881.20577    3911.4233     13.45396    13.353653    13.253679     1.782917    1530.9058     2184.885 
  925000    852.38891   -894.83089            0   -880.72786    4743.1877     13.45396    13.353653    13.253679    1.9445472    1532.7641    2183.0277 
  926000    745.02179   -894.41302            0   -882.08641    5427.5546     13.45396    13.353653    13.253679    2.1924309    1534.6227    2181.1707 
  927000    769.70864   -895.60241            0   -882.86736     4012.041     13.45396    13.353653    13.253679    2.2830894    1536.4782    2179.3095 
  928000    944.88732   -895.39328            0   -879.75984    4896.8183     13.45396    13.353653    13.253679    2.1381218    1538.3321     2177.446 
  929000    747.86842   -894.39803            0   -882.02432    5838.4804     13.45396    13.353653    13.253679    2.6707952    1540.1909    2175.5894 
  930000    723.07809   -895.83266            0   -883.86912    1492.2342     13.45396    13.353653    13.253679    1.4793284    1542.0489    2173.7316 
  931000    841.98721   -893.80664            0   -879.87571    4692.3608     13.45396    13.353653    13.253679    1.7880998    1543.9066    2171.8735 
  932000     790.1812   -893.97297            0   -880.89918    2679.7281     13.45396    13.353653    13.253679    2.2328329    1545.7634    2170.0141 
  933000    791.22351   -895.56121            0   -882.47018    3861.3139     13.45396    13.353653    13.253679    1.6788033    1547.6214    2168.1562 
  934000    881.71371   -893.62412            0    -879.0359     4836.773     13.45396    13.353653    13.253679    2.5778895     1549.479     2166.298 
  935000    800.28307   -894.92852            0   -881.68759    5510.8724     13.45396    13.353653    13.253679    2.8715454    1551.3335    2164.4353 
  936000    832.72381   -893.63211            0   -879.85445    8434.1368     13.45396    13.353653    13.253679    2.6338772     1553.192    2162.5784 
  937000    863.79358    -893.8437            0   -879.55198    5571.3898     13.45396    13.353653    13.253679    2.1934347    1555.0498    2160.7203 
  938000     708.5985   -893.24101            0   -881.51703    5409.8095     13.45396    13.353653    13.253679    4.1750241    1556.9071    2158.8616 
  939000    877.55692   -893.64926            0   -879.12982    5682.5451     13.45396    13.353653    13.253679    2.7624691    1558.7652    2157.0041 
  940000    880.89364   -893.39497            0   -878.82032    6948.5866     13.45396    13.353653    13.253679    2.9200571    1560.6236    2155.1469 
  941000    780.10817   -894.03216            0   -881.12504    6652.3688     13.45396    13.353653    13.253679    2.2324431    1562.4804    2153.2875 
  942000    732.60699    -894.2886            0   -882.16739    3780.3562     13.45396    13.353653    13.253679    1.7659773    1564.3381    2151.4293 
  943000    867.65538   -893.77286            0   -879.41725    6255.2851     13.45396    13.353653    13.253679    2.2912535    1566.1999    2149.5768 
  944000    804.55839   -894.72795            0   -881.41629    6586.7542     13.45396    13.353653    13.253679    1.8726222    1568.0573    2147.7183 
  945000    801.16305   -895.24386            0   -881.98838    4921.6546     13.45396    13.353653    13.253679    1.9377236    1569.9128    2145.8571 
  946000    886.96854   -895.00363            0   -880.32847    5440.0517     13.45396    13.353653    13.253679    2.7594948     1571.768    2143.9957 
  947000    874.02555    -893.9098            0   -879.44878    8618.2588     13.45396    13.353653    13.253679    3.3449313     1573.628    2142.1406 
  948000    791.11861   -895.37005            0   -882.28076    2136.9702     13.45396    13.353653    13.253679     1.666665    1575.4854    2140.2821 
  949000    750.24068   -893.24326            0   -880.83031    9161.4086     13.45396    13.353653    13.253679    2.2768719    1577.3439    2138.4249 
  950000    897.84384   -894.66491            0   -879.80982     3370.487     13.45396    13.353653    13.253679    2.5250428    1579.2004    2136.5652 
  951000    785.02764   -894.34838            0   -881.35986    5965.1791     13.45396    13.353653    13.253679    2.3402067    1581.0572    2134.7058 
  952000    901.18352   -895.17809            0   -880.26774    5850.5687     13.45396    13.353653    13.253679    2.1076571    1582.9143     2132.847 
  953000    894.93193   -893.82945            0   -879.02253    8892.0625     13.45396    13.353653    13.253679    3.7976468    1584.7735    2130.9908 
  954000    735.79137   -893.90749            0   -881.73361    6495.6457     13.45396    13.353653    13.253679    2.4158431    1586.6312    2129.1328 
  955000    822.15214   -893.56088            0   -879.95813    6826.2069     13.45396    13.353653    13.253679    2.0117688     1588.491    2127.2774 
  956000    839.52969   -892.85751            0   -878.96724    6855.3775     13.45396    13.353653    13.253679    2.5990858    1590.3554    2125.4282 
  957000     788.4575   -894.00258            0   -880.95732    4821.3808     13.45396    13.353653    13.253679    2.0037833    1592.2158    2123.5737 
  958000    778.27122    -894.6803            0   -881.80357    6187.8419     13.45396    13.353653    13.253679    2.7305257    1594.0755    2121.7182 
  959000    926.76043    -894.7052            0   -879.37167    7144.9191     13.45396    13.353653    13.253679     2.322209     1595.934    2119.8611 
  960000    866.46017   -895.77534            0    -881.4395    6779.0479     13.45396    13.353653    13.253679    1.7038454    1597.7926    2118.0041 
  961000    775.87054   -894.68293            0   -881.84592    6022.4771     13.45396    13.353653    13.253679    2.3980949    1599.6466    2116.1411 
  962000    837.94018   -893.98061            0   -880.11664    6805.3655     13.45396    13.353653    13.253679    2.2416041    1601.5076    2114.2873 
  963000      827.256   -895.31784            0   -881.63065   -267.38231     13.45396    13.353653    13.253679    2.0303444     1603.365    2112.4287 
  964000    775.09137   -894.85824            0   -882.03412    5984.7064     13.45396    13.353653    13.253679    2.4150812    1605.2274    2110.5768 
  965000    801.23951   -892.68904            0   -879.43229    9089.0274     13.45396    13.353653    13.253679    3.0236865     1607.084    2108.7171 
  966000    823.45413   -894.84867            0   -881.22438    4706.4618     13.45396    13.353653    13.253679    3.0777765    1608.9432    2106.8609 
  967000    763.71945   -893.94548            0   -881.30952     9051.031     13.45396    13.353653    13.253679    2.6220526    1610.8102    2105.0149 
  968000    829.17124   -893.64061            0   -879.92173     5994.478     13.45396    13.353653    13.253679     2.629175    1612.6705    2103.1602 
  969000    843.02966   -893.53937            0    -879.5912    9108.7011     13.45396    13.353653    13.253679     2.299324    1614.5287    2101.3027 
  970000    727.21613   -894.43321            0   -882.40121    6249.6851     13.45396    13.353653    13.253679    2.2841839    1616.3873    2099.4455 
  971000     765.0401   -891.94525            0   -879.28743    7988.3377     13.45396    13.353653    13.253679    2.7321287    1618.2443    2097.5865 
  972000    918.66093   -895.12765            0   -879.92813    6254.8911     13.45396    13.353653    13.253679    2.1907758    1620.1014    2095.7275 
  973000    798.49514   -895.08006            0   -881.86872    5551.4536     13.45396    13.353653    13.253679    2.3514261    1621.9593    2093.8696 
  974000    849.59775   -893.30859            0   -879.25174     5223.423     13.45396    13.353653    13.253679    2.5860918    1623.8152     2092.009 
  975000    817.26196   -893.99781            0   -880.47597     7352.342     13.45396    13.353653    13.253679    2.3052062    1625.6707    2090.1481 
  976000    796.88619   -894.68081            0   -881.49609    6121.2121     13.45396    13.353653    13.253679    2.5351242    1627.5269    2088.2879 
  977000    828.62705   -893.30237            0   -879.59249    7414.1566     13.45396    13.353653    13.253679    2.6529771    1629.3865    2086.4323 
  978000    865.95864   -892.48003            0   -878.15249    10395.182     13.45396    13.353653    13.253679    2.5726894    1631.2446    2084.5746 
  979000    785.46226   -893.94851            0    -880.9528    6774.2839     13.45396    13.353653    13.253679    2.2870001    1633.1049    2082.7197 
  980000    699.77344   -893.58882            0   -882.01086    4270.2954     13.45396    13.353653    13.253679    1.7794521    1634.9617    2080.8604 
  981000    845.83992   -892.95387            0    -878.9592    7533.1245     13.45396    13.353653    13.253679    2.4049534    1636.8201    2079.0031 
  982000    735.40536   -893.72826            0   -881.56076    8473.9033     13.45396    13.353653    13.253679    2.3104867    1638.6758    2077.1424 
  983000    801.12929    -894.8011            0   -881.54618    5812.9661     13.45396    13.353653    13.253679    2.1806971    1640.5305    2075.2803 
  984000    828.52358   -893.22519            0   -879.51702    6842.6757     13.45396    13.353653    13.253679    2.2820422    1642.3873    2073.4211 
  985000     954.2846    -893.8568            0   -878.06788    9871.4187     13.45396    13.353653    13.253679    2.1572386    1644.2471    2071.5656 
  986000    796.20659   -894.78626            0   -881.61279    5193.2946     13.45396    13.353653    13.253679    2.8240023    1646.1029     2069.705 
  987000    919.89723   -895.58518            0   -880.36521    4165.2702     13.45396    13.353653    13.253679    1.8575023    1647.9636    2067.8505 
  988000    845.40194   -892.90325            0   -878.91582    11657.071     13.45396    13.353653    13.253679    2.5149985    1649.8241     2065.996 
  989000    776.12071   -894.80072            0   -881.95957    7227.2251     13.45396    13.353653    13.253679    2.7513643    1651.6798    2064.1353 
  990000    833.67416   -893.38106            0   -879.58767     5413.085     13.45396    13.353653    13.253679    2.9915924    1653.5374     2062.277 
  991000    824.55797    -894.9527            0   -881.31014    4458.7954     13.45396    13.353653    13.253679    1.8546115    1655.3935    2060.4168 
  992000    794.23581   -895.27586            0   -882.13499    4157.0837     13.45396    13.353653    13.253679    2.0283899    1657.2503    2058.5575 
  993000    797.46033   -892.85635            0   -879.66214    7549.4422     13.45396    13.353653    13.253679    2.2254843    1659.1079    2056.6992 
  994000    818.95055   -894.27547            0   -880.72568    4560.8885     13.45396    13.353653    13.253679    2.4478286    1660.9628    2054.8377 
  995000    817.71868   -894.63897            0   -881.10957    3008.7117     13.45396    13.353653    13.253679    2.0644684    1662.8176     2052.976 
  996000    805.77731   -894.21544            0   -880.88361    3320.6601     13.45396    13.353653    13.253679    1.9287064    1664.6778    2051.1208 
  997000    766.23188   -892.99981            0   -880.32228    6082.1769     13.45396    13.353653    13.253679    1.7424628    1666.5332    2049.2599 
  998000    766.37509   -894.95594            0   -882.27603    4477.8318     13.45396    13.353653    13.253679    2.1819971    1668.3875    2047.3975 
  999000    750.27835   -893.90334            0   -881.48976    7829.6954     13.45396    13.353653    13.253679    1.7795487    1670.2443    2045.5383 
 1000000    778.37872   -892.72414            0   -879.84564    5325.8865     13.45396    13.353653    13.253679     1.981746    1672.0995    2043.6771 
 1001000    733.76376   -894.47652            0   -882.33618    5006.9701     13.45396    13.353653    13.253679    2.4473528    1673.9588    2041.8209 
 1002000     905.3672   -893.44847            0    -878.4689    7713.3894     13.45396    13.353653    13.253679    2.1986796     1675.814    2039.9599 
 1003000    782.02374   -893.65241            0   -880.71359    4036.2447     13.45396    13.353653    13.253679    1.8515468    1677.6706    2038.1003 
 1004000    780.15364   -894.66996            0   -881.76209    4551.2527     13.45396    13.353653    13.253679    2.5683932    1679.5285    2036.2426 
 1005000    909.95349   -893.07202            0   -878.01656    8086.0084     13.45396    13.353653    13.253679    1.8476469    1681.3868    2034.3851 
 1006000    784.11119   -893.34241            0   -880.36906    4806.6751     13.45396    13.353653    13.253679    2.1305672    1683.2439    2032.5263 
 1007000     775.2021   -894.38929            0   -881.56334    7210.8482     13.45396    13.353653    13.253679    2.2672079    1685.0978    2030.6636 
 1008000    836.84123   -893.48791            0   -879.64212    4755.7391     13.45396    13.353653    13.253679    2.7975308    1686.9567     2028.807 
 1009000     803.5544   -893.54642            0   -880.25137    6937.5658     13.45396    13.353653    13.253679    2.3970572    1688.8146     2026.949 
 1010000    739.64167   -893.96662            0   -881.72903    5812.3928     13.45396    13.353653    13.253679    2.6666444    1690.6711    2025.0895 
 1011000    870.00186    -894.1408            0   -879.74636    4733.2028     13.45396    13.353653    13.253679    2.4634841    1692.5258    2023.2279 
 1012000    924.94893   -892.31472            0   -877.01117    8242.3559     13.45396    13.353653    13.253679     2.418031    1694.3834    2021.3697 
 1013000    871.66428   -895.30224            0    -880.8803    6845.3098     13.45396    13.353653    13.253679    1.6765575    1696.2395    2019.5097 
 1014000    812.16512   -895.55907            0   -882.12156    4127.3522     13.45396    13.353653    13.253679    2.4029891    1698.0933    2017.6469 
 1015000    875.42532   -893.64415            0   -879.15997    6791.5237     13.45396    13.353653    13.253679    1.9466708    1699.9477     2015.785 
 1016000    782.53728   -893.83867            0   -880.89136    5582.2764     13.45396    13.353653    13.253679    3.5357594    1701.8052    2013.9266 
 1017000     739.2916   -893.68633            0   -881.45453    5544.2028     13.45396    13.353653    13.253679    1.9054619     1703.662    2012.0675 
 1018000    894.50851   -894.36228            0   -879.56237    4626.4854     13.45396    13.353653    13.253679    2.1428951    1705.5324    2010.2245 
 1019000    817.66182   -893.26556            0    -879.7371    9814.2785     13.45396    13.353653    13.253679    3.0470927    1707.3928    2008.3696 
 1020000    752.81838   -894.72584            0   -882.27023    5718.3499     13.45396    13.353653    13.253679    2.8869157    1709.2557    2006.5175 
 1021000    793.94043   -892.14221            0   -879.00623    8109.7123     13.45396    13.353653    13.253679     2.248866    1711.1133    2004.6594 
 1022000    840.13722   -893.99504            0   -880.09472    5191.1183     13.45396    13.353653    13.253679    2.4633611    1712.9709    2002.8012 
 1023000     726.1673   -893.60064            0   -881.58599    9065.6767     13.45396    13.353653    13.253679    2.2437284    1714.8307    2000.9455 
 1024000     819.6574   -894.31968            0    -880.7582    5367.9978     13.45396    13.353653    13.253679    2.1349826    1716.6852    1999.0836 
 1025000    876.57735   -894.10459            0   -879.60136    6502.2829     13.45396    13.353653    13.253679    2.1415098    1718.5422    1997.2247 
 1026000    712.41207   -894.25225            0   -882.46518    4366.9782     13.45396    13.353653    13.253679    2.1823245    1720.3995    1995.3661 
 1027000    800.75847   -894.34426            0   -881.09547     6323.623     13.45396    13.353653    13.253679    2.4757895     1722.256    1993.5067 
 1028000    751.92722   -893.12335            0   -880.68249    5649.5967     13.45396    13.353653    13.253679    2.3734292     1724.114    1991.6489 
 1029000    767.22946   -894.73124            0    -882.0372    2154.4808     13.45396    13.353653    13.253679    2.0629639    1725.9693    1989.7881 
 1030000    742.76526   -895.23672            0   -882.94744    5163.8851     13.45396    13.353653    13.253679    3.1222773    1727.8252    1987.9279 
 1031000     835.2667   -894.10991            0   -880.29017    5293.1544     13.45396    13.353653    13.253679    2.1441676    1729.6813    1986.0681 
 1032000    793.75627   -895.26212            0   -882.12918     3813.452     13.45396    13.353653    13.253679    2.5158493    1731.5406    1984.2118 
 1033000    713.82919   -895.55741            0   -883.74689    4363.4796     13.45396    13.353653    13.253679     2.142454    1733.3966    1982.3517 
 1034000    859.53134   -894.26325            0   -880.04205    7794.3005     13.45396    13.353653    13.253679    2.7545509    1735.2532    1980.4924 
 1035000    803.53124   -894.93603            0   -881.64137      2244.46     13.45396    13.353653    13.253679    2.0268176    1737.1098    1978.6331 
 1036000     752.8306   -894.86527            0   -882.40947    8013.5806     13.45396    13.353653    13.253679    2.6146607    1738.9652    1976.7724 
 1037000    833.35446   -893.39312            0   -879.60503    5863.5728     13.45396    13.353653    13.253679    2.2946641    1740.8196    1974.9106 
 1038000    773.73242   -894.97164            0   -882.17001    5526.1078     13.45396    13.353653    13.253679    2.8244796    1742.6736    1973.0484 
 1039000    866.45769   -893.36976            0   -879.03395    7028.5582     13.45396    13.353653    13.253679    2.6043653    1744.5294    1971.1882 
 1040000    794.67575   -893.47887            0   -880.33072    6501.6422     13.45396    13.353653    13.253679    2.2294838    1746.3865    1969.3295 
 1041000    734.64471   -893.84607            0   -881.69116    6956.4679     13.45396    13.353653    13.253679    2.5595358    1748.2415    1967.4684 
 1042000    902.56193   -893.44289            0   -878.50973    7299.9756     13.45396    13.353653    13.253679      2.74777    1750.0962     1965.607 
 1043000    843.24636   -893.36456            0    -879.4128     7410.139     13.45396    13.353653    13.253679    2.0140082    1751.9538    1963.7488 
 1044000    731.81657   -893.44572            0   -881.33759    3994.1421     13.45396    13.353653    13.253679     2.612641    1753.8109    1961.8902 
 1045000    760.10406    -894.2475            0   -881.67135    6627.4218     13.45396    13.353653    13.253679    2.1928289    1755.6708    1960.0346 
 1046000    872.14093   -893.80912            0   -879.37928    3628.0654     13.45396    13.353653    13.253679    1.9234226    1757.5291    1958.1772 
 1047000    771.42554    -895.0571            0   -882.29364    4583.1355     13.45396    13.353653    13.253679    2.4611698    1759.3873    1956.3197 
 1048000    766.47996   -894.32591            0   -881.64427    1775.6475     13.45396    13.353653    13.253679    2.0680526    1761.2461     1954.463 
 1049000    802.29518   -893.88825            0   -880.61403    5977.0684     13.45396    13.353653    13.253679    3.0367537    1763.1054    1952.6067 
 1050000    802.82097   -894.25298            0   -880.97007    7443.0417     13.45396    13.353653    13.253679    2.0376196    1764.9615     1950.747 
 1051000    696.45596   -895.07538            0    -883.5523    4494.3471     13.45396    13.353653    13.253679    2.2367846    1766.8179    1948.8875 
 1052000    882.66189   -895.71513            0   -881.11123    4836.2624     13.45396    13.353653    13.253679    2.0165403     1768.675    1947.0287 
 1053000    826.22575   -894.10105            0    -880.4309     6680.485     13.45396    13.353653    13.253679    1.9642974    1770.5321    1945.1702 
 1054000    729.63172   -895.63184            0   -883.55987    2478.5502     13.45396    13.353653    13.253679     2.125183    1772.3885    1943.3106 
 1055000     727.5393   -893.15363            0   -881.11628    6500.5353     13.45396    13.353653    13.253679    2.1900725    1774.2459    1941.4523 
 1056000    823.73799    -894.3372            0   -880.70821    3982.0388     13.45396    13.353653    13.253679    2.6740817    1776.1042     1939.595 
 1057000    819.69472   -894.82515            0   -881.26305    4822.8225     13.45396    13.353653    13.253679    2.1245759    1777.9643    1937.7396 
 1058000    773.48776   -894.28099            0    -881.4834    5898.1851     13.45396    13.353653    13.253679    2.1802309    1779.8269    1935.8869 
 1059000    782.54071   -892.01942            0   -879.07205    6926.3437     13.45396    13.353653    13.253679    3.2022485    1781.6835    1934.0277 
 1060000    722.76339   -894.41567            0   -882.45733    7735.0722     13.45396    13.353653    13.253679    2.3347843    1783.5422    1932.1708 
 1061000    845.64519   -895.28133            0   -881.28988     5050.484     13.45396    13.353653    13.253679    2.2479528    1785.3998    1930.3126 
 1062000    912.81942    -894.9906            0   -879.88773    5897.2722     13.45396    13.353653    13.253679    2.2052816    1787.2554    1928.4523 
 1063000    716.92342   -895.39631            0    -883.5346    3468.5712     13.45396    13.353653    13.253679     2.160793    1789.1107    1926.5916 
 1064000    801.61433   -893.66357            0   -880.40063    6000.6093     13.45396    13.353653    13.253679    2.1646981    1790.9644    1924.7294 
 1065000    848.18856   -894.54737            0   -880.51384    1873.5094     13.45396    13.353653    13.253679    2.3346668    1792.8242    1922.8736 
 1066000    685.34851   -894.75402            0   -883.41473    3698.8145     13.45396    13.353653    13.253679    2.2700947     1794.684    1921.0178 
 1067000    714.71261     -893.382            0   -881.55687    7030.6084     13.45396    13.353653    13.253679    2.7983397    1796.5413    1919.1594 
 1068000    789.89027   -893.53876            0   -880.46979    6330.4341     13.45396    13.353653    13.253679    2.5241056     1798.405    1917.3078 
 1069000     879.5909   -894.04385            0   -879.49076    5729.1645     13.45396    13.353653    13.253679    3.0073507    1800.2598    1915.4467 
 1070000     741.0344   -894.54263            0   -882.28199    3047.9032     13.45396    13.353653    13.253679    2.3381109    1802.1177    1913.5889 
 1071000    808.64297   -893.99275            0   -880.61351    7346.0542     13.45396    13.353653    13.253679    1.8723856    1803.9713    1911.7265 
 1072000    816.59973   -893.21012            0   -879.69923    2926.4604     13.45396    13.353653    13.253679     2.281814    1805.8274    1909.8668 
 1073000    737.11894   -894.15079            0   -881.95494    6482.4338     13.45396    13.353653    13.253679    2.6700562    1807.6826    1908.0062 
 1074000     877.8652   -893.56823            0   -879.04368    7267.5554     13.45396    13.353653    13.253679    3.0772299    1809.5376    1906.1453 
 1075000    834.26342    -894.0187            0   -880.21556    6266.1601     13.45396    13.353653    13.253679    2.3706298    1811.3945    1904.2865 
 1076000      777.927   -894.54632            0   -881.67528    2406.1455     13.45396    13.353653    13.253679    2.4388258    1813.2511    1902.4274 
 1077000    923.57994   -893.75557            0   -878.47466    7038.4915     13.45396    13.353653    13.253679    3.5236758    1815.1107    1900.5714 
 1078000    850.62121   -893.97457            0   -879.90079    6185.4892     13.45396    13.353653    13.253679    2.1368861    1816.9705    1898.7156 
 1079000    866.41359   -895.84062            0   -881.50555    4156.9132     13.45396    13.353653    13.253679    2.0479492    1818.8279    1896.8573 
 1080000    841.90785   -895.62012            0   -881.69051    5744.6926     13.45396    13.353653    13.253679    2.4204114    1820.6832    1894.9968 
 1081000    910.97039   -893.89371            0   -878.82143    8444.6292     13.45396    13.353653    13.253679    2.5452068    1822.5392     1893.137 
 1082000    745.85578   -894.34914            0   -882.00873    4834.5979     13.45396    13.353653    13.253679    2.6537343    1824.3958    1891.2779 
 1083000    813.83638   -894.67602            0   -881.21085    10830.138     13.45396    13.353653    13.253679    2.8739699    1826.2526     1889.419 
 1084000    797.59409   -892.08166            0   -878.88523    10017.946     13.45396    13.353653    13.253679     3.215583    1828.1091    1887.5598 
 1085000    801.54163   -893.12204            0   -879.86029    5114.0765     13.45396    13.353653    13.253679    2.3313233    1829.9646    1885.6996 
 1086000    770.33649   -894.80257            0   -882.05712    7574.7646     13.45396    13.353653    13.253679    2.0556433    1831.8205    1883.8398 
 1087000     853.0795   -893.39412            0   -879.27966    6966.6896     13.45396    13.353653    13.253679    1.8199935    1833.6779    1881.9815 
 1088000    787.81561   -893.57288            0   -880.53823    8236.7371     13.45396    13.353653    13.253679     1.892374    1835.5362    1880.1241 
 1089000    779.40536   -894.23509            0    -881.3396     2039.066     13.45396    13.353653    13.253679    2.1907797    1837.3937    1878.2659 
 1090000    816.70475   -893.60183            0   -880.08921    5897.7193     13.45396    13.353653    13.253679    2.8042022    1839.2489    1876.4054 
 1091000     743.8905    -893.6449            0   -881.33701     5950.506     13.45396    13.353653    13.253679    2.3016435    1841.1048    1874.5457 
 1092000    754.36447   -895.07574            0   -882.59456    4627.1933     13.45396    13.353653    13.253679    2.2959972    1842.9589    1872.6841 
 1093000    848.97159   -893.49706            0   -879.45058    5679.0662     13.45396    13.353653    13.253679    2.3832752    1844.8167    1870.8262 
 1094000    784.87468   -894.74574            0   -881.75976    6504.4092     13.45396    13.353653    13.253679    2.0339193    1846.6785    1868.9724 
 1095000    766.80523   -893.45022            0    -880.7632    4808.3345     13.45396    13.353653    13.253679    2.6915392    1848.5344    1867.1126 
 1096000     854.6259   -893.54556            0   -879.40552     8640.262     13.45396    13.353653    13.253679    2.2947133    1850.3974    1865.2601 
 1097000    734.26358   -893.97614            0   -881.82753    6903.7117     13.45396    13.353653    13.253679    2.7876232    1852.2549    1863.4018 
 1098000    825.76197   -893.83793            0   -880.17545    6067.0979     13.45396    13.353653    13.253679    2.3210592     1854.111    1861.5423 
 1099000    1002.0199   -893.68472            0   -877.10601     8576.459     13.45396    13.353653    13.253679    2.9150945    1855.9681    1859.6838 
 1100000    803.96173   -893.89127            0   -880.58948    6440.6092     13.45396    13.353653    13.253679    2.2968513    1857.8257    1857.8257 
 1101000    783.71215   -895.06426            0   -882.09751    3221.7949     13.45396    13.353653    13.253679    2.5087793    1859.6856      1855.97 
 1102000     877.1241   -893.36035            0   -878.84807    9574.6546     13.45396    13.353653    13.253679    1.8395851     1861.543    1854.1117 
 1103000    814.42351   -894.55112            0   -881.07624    5152.8658     13.45396    13.353653    13.253679    1.9604392    1863.3997    1852.2527 
 1104000    830.14772   -895.07761            0   -881.34257    4707.9466     13.45396    13.353653    13.253679    2.9564813     1865.255    1850.3924 
 1105000    870.57167   -893.69844            0   -879.29458    4866.8932     13.45396    13.353653    13.253679    2.4039959     1867.113    1848.5348 
 1106000    811.55516   -893.51768            0   -880.09026    7094.3123     13.45396    13.353653    13.253679    3.8814111    1868.9737    1846.6798 
 1107000    798.77933   -895.01369            0   -881.79764     3362.346     13.45396    13.353653    13.253679     2.154428     1870.829    1844.8194 
 1108000    752.75799   -891.54934            0   -879.09473    6720.9709     13.45396    13.353653    13.253679    2.7059276    1872.6845    1842.9594 
 1109000    759.28384   -893.93149            0   -881.36891    6105.0101     13.45396    13.353653    13.253679      2.74469    1874.5437    1841.1029 
 1110000    730.10222    -893.6742            0   -881.59444    5199.8809     13.45396    13.353653    13.253679    3.2414634    1876.3975    1839.2411 
 1111000     782.2043   -892.28167            0   -879.33987    7426.3646     13.45396    13.353653    13.253679    2.2900099    1878.2526    1837.3806 
 1112000    704.21596   -894.67921            0   -883.02775    5457.9898     13.45396    13.353653    13.253679    3.1661536    1880.1092    1835.5216 
 1113000    809.62067   -894.05784            0   -880.66243    4893.4722     13.45396    13.353653    13.253679    2.2646484    1881.9656    1833.6625 
 1114000    826.61872   -894.10596            0   -880.42931    6645.8565     13.45396    13.353653    13.253679    2.8220029    1883.8231    1831.8043 
 1115000    684.65846   -895.26447            0   -883.93659    5128.6281     13.45396    13.353653    13.253679    3.4270434    1885.6772    1829.9429 
 1116000    707.07573   -894.50046            0   -882.80169    5309.6884     13.45396    13.353653    13.253679    2.1170919    1887.5307    1828.0809 
 1117000    756.86496   -892.94408            0   -880.42152    6027.0004     13.45396    13.353653    13.253679    2.1937082    1889.3939    1826.2283 
 1118000    782.16696   -894.21513            0   -881.27395    4244.0056     13.45396    13.353653    13.253679    3.0134349    1891.2515    1824.3703 
 1119000    736.86715   -895.06832            0   -882.87664    4392.7253     13.45396    13.353653    13.253679    1.6964948     1893.107    1822.5102 
 1120000    870.08102   -894.97565            0    -880.5799    4746.1697     13.45396    13.353653    13.253679    1.9245293    1894.9621    1820.6498 
 1121000    800.23762   -894.62752            0   -881.38735    7967.4326     13.45396    13.353653    13.253679    2.0931648    1896.8183    1818.7905 
 1122000    745.23566   -896.13827            0   -883.80812    3359.9537     13.45396    13.353653    13.253679    2.0296485    1898.6718    1816.9286 
 1123000    828.85593   -894.00963            0   -880.29596    7166.6431     13.45396    13.353653    13.253679    2.0792938    1900.5308     1815.072 
 1124000    731.83567   -893.24825            0   -881.13981    4435.4347     13.45396    13.353653    13.253679    2.8915088    1902.3868    1813.2124 
 1125000    703.18513   -895.38642            0   -883.75202    3219.4723     13.45396    13.353653    13.253679    2.3209093    1904.2452    1811.3552 
 1126000    771.73623   -893.03961            0   -880.27101    6280.9866     13.45396    13.353653    13.253679    2.7212469    1906.1045    1809.4988 
 1127000    844.14468   -894.65572            0    -880.6891    1562.6807     13.45396    13.353653    13.253679    2.5053679    1907.9626    1807.6413 
 1128000    700.38786   -894.85231            0   -883.26419    6429.6306     13.45396    13.353653    13.253679    2.4906484    1909.8171    1805.7804 
 1129000     847.2167   -893.53606            0    -879.5186    7801.1074     13.45396    13.353653    13.253679    2.2590368    1911.6714    1803.9193 
 1130000    764.45609   -894.15536            0   -881.50721    5842.2524     13.45396    13.353653    13.253679    2.9356808    1913.5286    1802.0609 
 1131000    769.13042   -894.61106            0   -881.88557     5272.142     13.45396    13.353653    13.253679    2.1458289    1915.3887    1800.2053 
 1132000    881.58925   -893.55117            0   -878.96501    9556.4392     13.45396    13.353653    13.253679    2.3705868    1917.2504    1798.3512 
 1133000    802.40412   -895.12865            0   -881.85263    7171.7693     13.45396    13.353653    13.253679    2.2919402    1919.1075    1796.4927 
 1134000    857.04878   -894.62596            0   -880.44583     8253.564     13.45396    13.353653    13.253679    2.3411294    1920.9644    1794.6341 
 1135000     892.5835   -893.85231            0   -879.08425    9333.1413     13.45396    13.353653    13.253679    2.4080903    1922.8205    1792.7747 
 1136000    794.67524   -894.45837            0   -881.31023    4195.1521     13.45396    13.353653    13.253679    2.0438923    1924.6779    1790.9165 
 1137000    795.19704   -893.90904            0   -880.75227    9156.8425     13.45396    13.353653    13.253679    2.3076838    1926.5474    1789.0696 
 1138000    962.48943   -894.43263            0   -878.50795    7972.1621     13.45396    13.353653    13.253679    3.1976211    1928.4032    1787.2099 
 1139000    828.85115   -895.04824            0   -881.33465     6535.603     13.45396    13.353653    13.253679    2.1170032    1930.2613    1785.3524 
 1140000    809.32947   -893.86681            0   -880.47621     7925.798     13.45396    13.353653    13.253679    2.4428595    1932.1162    1783.4919 
 1141000    886.59268   -892.66517            0   -877.99623    3817.1048     13.45396    13.353653    13.253679    2.0483875    1933.9734    1781.6336 
 1142000    664.96872   -892.62509            0   -881.62298    5361.0557     13.45396    13.353653    13.253679    2.1943071    1935.8282    1779.7729 
 1143000    785.43859   -893.67003            0   -880.67471    6193.0563     13.45396    13.353653    13.253679    2.4460505    1937.6834    1777.9128 
 1144000    900.62445   -893.48597            0   -878.58487    5595.5346     13.45396    13.353653    13.253679    2.3293441    1939.5386    1776.0526 
 1145000    759.67095   -894.86299            0     -882.294    4962.7541     13.45396    13.353653    13.253679    1.7386474    1941.3938    1774.1925 
 1146000    775.71937   -893.26667            0   -880.43216    7981.3012     13.45396    13.353653    13.253679    2.6335375    1943.2477    1772.3311 
 1147000    783.70615   -893.13568            0   -880.16903    5768.8634     13.45396    13.353653    13.253679    2.8546653    1945.1039    1770.4719 
 1148000    771.28342   -895.43915            0   -882.67804    2286.8797     13.45396    13.353653    13.253679    2.1586047    1946.9587    1768.6113 
 1149000    850.12469   -893.82583            0   -879.76027    4922.1431     13.45396    13.353653    13.253679    2.8712199     1948.819    1766.7558 
 1150000    683.52781   -892.94572            0   -881.63655    7136.3286     13.45396    13.353653    13.253679     2.795831    1950.6752    1764.8966 
 1151000    746.17173   -895.18552            0   -882.83989    3289.7747     13.45396    13.353653    13.253679    1.9843581    1952.5336    1763.0394 
 1152000    766.45145   -893.02085            0   -880.33968    2307.7756     13.45396    13.353653    13.253679    2.0583048    1954.3881    1761.1786 
 1153000    824.03457   -894.10192            0   -880.46802    4380.1598     13.45396    13.353653    13.253679    1.9746607    1956.2446    1759.3197 
 1154000    709.76592   -894.86546            0   -883.12217    5605.8811     13.45396    13.353653    13.253679     2.135473    1958.0992    1757.4591 
 1155000    836.64034   -894.28507            0    -880.4426    4873.1184     13.45396    13.353653    13.253679    1.9450702    1959.9549    1755.5994 
 1156000    803.51783   -894.14831            0   -880.85387    6870.1582     13.45396    13.353653    13.253679    2.4615916    1961.8101    1753.7394 
 1157000    782.26042   -896.68656            0   -883.74383   -523.52279     13.45396    13.353653    13.253679    1.8775982    1963.6656    1751.8795 
 1158000    817.66003   -894.09172            0   -880.56329    8395.6687     13.45396    13.353653    13.253679    1.9820245    1965.5347    1750.0318 
 1159000    839.39413   -894.52988            0   -880.64185    4345.3417     13.45396    13.353653    13.253679    2.0471141    1967.3895    1748.1714 
 1160000    734.11213   -894.62271            0   -882.47661    7670.8963     13.45396    13.353653    13.253679    2.1351621     1969.247    1746.3133 
 1161000    780.30607   -893.34668            0   -880.43628    4505.9341     13.45396    13.353653    13.253679    2.4014403    1971.1068    1744.4574 
 1162000    814.22739   -893.42274            0    -879.9511    4341.2846     13.45396    13.353653    13.253679    2.2894991    1972.9637    1742.5988 
 1163000     715.9749   -894.93846            0   -883.09244    3121.0389     13.45396    13.353653    13.253679    1.5627575    1974.8194    1740.7392 
 1164000    629.55009   -893.80201            0   -883.38591    6154.2802     13.45396    13.353653    13.253679    2.0698621    1976.6702    1738.8753 
 1165000    748.00351   -892.29463            0   -879.91869    5732.7423     13.45396    13.353653    13.253679    2.2936177    1978.5278    1737.0174 
 1166000     784.3161   -893.13563            0   -880.15889    7745.9018     13.45396    13.353653    13.253679    2.6644348    1980.3827     1735.157 
 1167000    681.08024   -893.81838            0    -882.5497      2331.44     13.45396    13.353653    13.253679    2.4254351    1982.2394    1733.2984 
 1168000    913.97514   -893.94234            0   -878.82034    8059.5713     13.45396    13.353653    13.253679    3.9617783    1984.0957    1731.4393 
 1169000    792.27998   -894.42913            0   -881.32062    4569.8092     13.45396    13.353653    13.253679     2.029228    1985.9522    1729.5804 
 1170000    792.66731   -894.67375            0   -881.55883     6776.376     13.45396    13.353653    13.253679    1.9228215    1987.8066    1727.7197 
 1171000    855.87611   -892.06365            0   -877.90293    8162.6837     13.45396    13.353653    13.253679    2.9534962     1989.664    1725.8617 
 1172000    815.09565   -894.47912            0   -880.99312    4337.4139     13.45396    13.353653    13.253679    2.3723846    1991.5253     1724.007 
 1173000    795.65387    -894.5637            0   -881.39937    6334.7456     13.45396    13.353653    13.253679    1.7687817    1993.3823    1722.1486 
 1174000    889.18566   -892.93696            0   -878.22512    6065.5279     13.45396    13.353653    13.253679    2.1047227    1995.2428    1720.2932 
 1175000    790.47816   -894.48233            0   -881.40363    5771.6365     13.45396    13.353653    13.253679    1.9763542    1997.1006    1718.4354 
 1176000     770.1042   -893.92291            0   -881.18131    3765.4865     13.45396    13.353653    13.253679    2.6122278    1998.9587    1716.5779 
 1177000    837.63032   -891.63896            0   -877.78011     7997.904     13.45396    13.353653    13.253679    2.4574257     2000.816    1714.7197 
 1178000    795.97913   -894.26499            0   -881.09528    4606.6395     13.45396    13.353653    13.253679    1.8093873    2002.6722    1712.8606 
 1179000    683.14098   -892.59134            0   -881.28857    9184.2139     13.45396    13.353653    13.253679    2.9596287      2004.53    1711.0029 
 1180000    847.29407    -892.7521            0   -878.73337    6435.2117     13.45396    13.353653    13.253679    3.1538845     2006.386    1709.1437 
 1181000    796.61457   -894.77036            0   -881.59013    5350.3527     13.45396    13.353653    13.253679    2.3500004    2008.2391    1707.2819 
 1182000    799.19854   -894.58574            0   -881.36276    4789.6123     13.45396    13.353653    13.253679    2.2480264    2010.0963    1705.4237 
 1183000    830.12286   -892.78905            0   -879.05442    4789.8819     13.45396    13.353653    13.253679    2.9539991    2011.9523    1703.5644 
 1184000    886.63249   -895.01609            0   -880.34649    7736.7622     13.45396    13.353653    13.253679    2.0911607    2013.8117     1701.708 
 1185000    765.10792   -894.07008            0   -881.41115    5222.0896     13.45396    13.353653    13.253679     2.659814     2015.665    1699.8465 
 1186000    725.41651   -893.85957            0   -881.85734    7962.0681     13.45396    13.353653    13.253679    2.2135573    2017.5186    1697.9853 
 1187000    882.75739   -893.78726            0   -879.18178    5821.8114     13.45396    13.353653    13.253679    2.4809302    2019.3743    1696.1258 
 1188000    730.01161   -894.00876            0    -881.9305    4412.1318     13.45396    13.353653    13.253679    2.0540545    2021.2272     1694.264 
 1189000    850.72514   -895.54296            0   -881.46746     4437.251     13.45396    13.353653    13.253679    2.0603194    2023.0803    1692.4023 
 1190000     739.2613   -892.17362            0   -879.94232    9219.2051     13.45396    13.353653    13.253679    3.2824802    2024.9345    1690.5416 
 1191000    814.10235   -894.23545            0   -880.76588     5175.572     13.45396    13.353653    13.253679    2.9924005    2026.7891    1688.6813 
 1192000    797.08438   -894.08378            0   -880.89578    8148.0998     13.45396    13.353653    13.253679     2.385227    2028.6473     1686.824 
 1193000    826.64193   -893.80411            0   -880.12707    8369.0803     13.45396    13.353653    13.253679    2.8532261    2030.5028    1684.9643 
 1194000     823.2778   -892.44937            0   -878.82799    4480.1307     13.45396    13.353653    13.253679    2.1686321    2032.3603    1683.1064 
 1195000    759.75842   -894.53694            0   -881.96651    5660.7536     13.45396    13.353653    13.253679    2.3945818    2034.2239    1681.2535 
 1196000    863.07471   -894.39406            0   -880.11423    2143.7376     13.45396    13.353653    13.253679    1.9641062    2036.0814    1679.3956 
 1197000    908.56232   -892.87222            0   -877.83979    5978.4498     13.45396    13.353653    13.253679    2.2085937    2037.9369     1677.536 
 1198000    729.82728   -892.90829            0   -880.83308    3198.0623     13.45396    13.353653    13.253679    2.6139497    2039.7936    1675.6775 
 1199000    758.83756   -894.31294            0   -881.75774    6721.7101     13.45396    13.353653    13.253679    2.0937889    2041.6495    1673.8182 
 1200000    928.25843   -894.02662            0    -878.6683     7018.211     13.45396    13.353653    13.253679    2.4636052    2043.5124    1671.9647 
 1201000     894.3844    -895.0192            0   -880.22134    5960.4483     13.45396    13.353653    13.253679    2.5792135    2045.3682    1670.1053 
 1202000    821.31251   -894.69503            0   -881.10617    4393.1098     13.45396    13.353653    13.253679    1.8704959     2047.223    1668.2453 
 1203000    776.62625   -894.85252            0   -882.00301    5252.5123     13.45396    13.353653    13.253679    2.3950102    2049.0789     1666.386 
 1204000    806.15963   -892.96405            0    -879.6259    11394.371     13.45396    13.353653    13.253679    2.6033993    2050.9332    1664.5255 
 1205000    751.52904   -893.01895            0   -880.58467    5067.8453     13.45396    13.353653    13.253679    3.2933907    2052.7927    1662.6692 
 1206000    736.00538   -894.34874            0   -882.17131    5080.0457     13.45396    13.353653    13.253679    1.9185386    2054.6477    1660.8093 
 1207000    818.08193   -893.39674            0   -879.86133    5577.5143     13.45396    13.353653    13.253679     2.617214    2056.5093    1658.9546 
 1208000    755.10846   -894.25698            0   -881.76349    4907.1936     13.45396    13.353653    13.253679    4.4567239    2058.3696     1657.099 
 1209000    713.80573   -894.51003            0    -882.6999     5280.882     13.45396    13.353653    13.253679    2.4356754    2060.2221     1655.237 
 1210000    808.06989   -893.34816            0    -879.9784    5326.5544     13.45396    13.353653    13.253679    2.3979699    2062.0804    1653.3798 
 1211000    759.92371   -893.82778            0   -881.25461     7194.264     13.45396    13.353653    13.253679    2.5864558    2063.9387    1651.5225 
 1212000    825.85331   -896.22959            0    -882.5656    4813.0565     13.45396    13.353653    13.253679    1.4650395    2065.7917     1649.661 
 1213000    736.63987   -892.59358            0   -880.40565    5113.8582     13.45396    13.353653    13.253679    2.5034865    2067.6477    1647.8019 
 1214000    835.64782   -894.38301            0   -880.55696    3523.0479     13.45396    13.353653    13.253679    2.2640211    2069.5033    1645.9425 
 1215000    725.24803   -894.97193            0   -882.97249    6527.3337     13.45396    13.353653    13.253679    2.0039364    2071.3538     1644.079 
 1216000    769.79817     -892.599            0   -879.86246    7346.4202     13.45396    13.353653    13.253679    3.5462518    2073.2098      1642.22 
 1217000     792.2682   -893.68381            0    -880.5755    1962.9626     13.45396    13.353653    13.253679    2.2315892    2075.0676    1640.3623 
 1218000    734.52474   -895.24933            0   -883.09639     6188.033     13.45396    13.353653    13.253679    2.0972869    2076.9214    1638.5015 
 1219000    796.20722   -893.96308            0    -880.7896    9951.3675     13.45396    13.353653    13.253679    2.3807236    2078.7748    1636.6404 
 1220000    852.28266   -893.97921            0   -879.87794    4562.3726     13.45396    13.353653    13.253679    1.9195502    2080.6268    1634.7782 
 1221000    773.66062   -895.65666            0   -882.85622    2082.9104     13.45396    13.353653    13.253679    2.1977498     2082.479    1632.9162 
 1222000    919.10111   -894.50593            0   -879.29913    5921.1214     13.45396    13.353653    13.253679    2.1247186    2084.3369    1631.0586 
 1223000    837.19283   -894.70957            0   -880.85796    6274.2243     13.45396    13.353653    13.253679    2.5144985    2086.1923    1629.1992 
 1224000    701.47189   -893.72338            0   -882.11732    5209.0149     13.45396    13.353653    13.253679    1.8448914    2088.0438    1627.3367 
 1225000    890.01273   -893.30015            0   -878.57463    2977.7576     13.45396    13.353653    13.253679    2.4022281     2089.898    1625.4762 
 1226000    770.20075   -893.94982            0   -881.20661    8750.1288     13.45396    13.353653    13.253679    2.3835834    2091.7507    1623.6146 
 1227000     819.9481   -894.79931            0   -881.23302    7108.8416     13.45396    13.353653    13.253679    2.1429088     2093.613    1621.7606 
 1228000    756.55768   -893.14263            0   -880.62515    5273.1841     13.45396    13.353653    13.253679    2.6989686    2095.4677    1619.9006 
 1229000    776.14843   -893.67557            0   -880.83397    6876.1497     13.45396    13.353653    13.253679     2.252595    2097.3244    1618.0421 
 1230000    831.55321   -895.86898            0   -882.11069    5300.3348     13.45396    13.353653    13.253679    1.7892001    2099.1798    1616.1827 
 1231000    825.73224     -895.041            0   -881.37902    5663.2924     13.45396    13.353653    13.253679    2.9852768    2101.0357    1614.3236 
 1232000    939.03976   -895.20523            0   -879.66854     6036.161     13.45396    13.353653    13.253679    1.7423385    2102.8896    1612.4631 
 1233000     752.8753   -894.43401            0   -881.97746    5730.1062     13.45396    13.353653    13.253679    2.3836939    2104.7451    1610.6037 
 1234000    852.68487   -895.54716            0   -881.43923     5329.877     13.45396    13.353653    13.253679    1.8123861    2106.5996    1608.7436 
 1235000    865.06241   -893.84354            0   -879.53082    3836.1321     13.45396    13.353653    13.253679    2.0323225    2108.4529    1606.8826 
 1236000    783.20475   -894.53467            0   -881.57632    6776.7886     13.45396    13.353653    13.253679    2.6766325    2110.3057    1605.0213 
 1237000    747.24803   -894.03712            0   -881.67368    3321.3186     13.45396    13.353653    13.253679    2.1525584    2112.1598    1603.1609 
 1238000    837.64878   -893.46195            0    -879.6028    6946.3661     13.45396    13.353653    13.253679    2.6974869    2114.0185     1601.304 
 1239000    742.57484   -893.41944            0   -881.13332    5145.9129     13.45396    13.353653    13.253679    2.7033271    2115.8777    1599.4475 
 1240000    735.45237   -894.83484            0   -882.66656    3543.4624     13.45396    13.353653    13.253679    2.1914655    2117.7317     1597.587 
 1241000    750.55048   -893.74132            0   -881.32324     5321.302     13.45396    13.353653    13.253679    2.1496799    2119.5938    1595.7327 
 1242000    860.36987   -893.94992            0   -879.71484      3577.22     13.45396    13.353653    13.253679    2.4035518    2121.4493    1593.8734 
 1243000    753.96867   -895.63553            0   -883.16089    2570.4473     13.45396    13.353653    13.253679    1.7740177     2123.305    1592.0144 
 1244000    778.95485   -894.65666            0   -881.76862    4316.7417     13.45396    13.353653    13.253679    2.5296217    2125.1621    1590.1562 
 1245000    818.36763   -893.79284            0    -880.2527    7607.6141     13.45396    13.353653    13.253679    2.1024802    2127.0205    1588.2991 
 1246000    815.27553   -895.29171            0   -881.80273    3050.5518     13.45396    13.353653    13.253679    2.7045773    2128.8762      1586.44 
 1247000    753.40479   -894.57666            0   -882.11136    6726.2899     13.45396    13.353653    13.253679     2.633698    2130.7305    1584.5799 
 1248000    825.48122   -893.33889            0   -879.68105    7969.6537     13.45396    13.353653    13.253679    2.0143276    2132.5902    1582.7238 
 1249000    723.10085   -893.29178            0   -881.32786    4384.1388     13.45396    13.353653    13.253679    2.6776403    2134.4474    1580.8657 
 1250000    715.47587   -896.28927            0    -884.4515    1310.3802     13.45396    13.353653    13.253679    2.1089775    2136.3044    1579.0076 
 1251000    775.26204   -894.52586            0   -881.69891    4209.4786     13.45396    13.353653    13.253679    1.7070514    2138.1566    1577.1459 
 1252000    811.39534   -893.37457            0   -879.94979    5231.4194     13.45396    13.353653    13.253679    1.8636941    2140.0113    1575.2861 
 1253000    754.07488   -894.55737            0   -882.08098    5940.5771     13.45396    13.353653    13.253679    3.0863245    2141.8666    1573.4267 
 1254000     685.0501   -893.32585            0   -881.99149    1390.7678     13.45396    13.353653    13.253679    2.2831208    2143.7246    1571.5693 
 1255000    783.01736   -893.06834            0   -880.11308    5431.7171     13.45396    13.353653    13.253679     2.480503    2145.5864    1569.7147 
 1256000    742.38902   -894.02526            0   -881.74222    3432.5602     13.45396    13.353653    13.253679    2.1823489    2147.5107    1567.9058 
 1257000    725.57711   -895.67597            0   -883.67108    2975.2783     13.45396    13.353653    13.253679    1.8752474    2149.3927    1566.0658 
 1258000     780.0314   -893.00925            0    -880.1034    4967.5425     13.45396    13.353653    13.253679    2.0174565     2151.249     1564.207 
 1259000    800.42259   -894.24209            0   -880.99886    4155.1147     13.45396    13.353653    13.253679    1.9783924    2153.1077      1562.35 
 1260000    670.20983   -894.22149            0   -883.13267     6558.389     13.45396    13.353653    13.253679    2.5792804     2154.963    1560.4904 
 1261000    793.37324   -892.46721            0   -879.34061    2262.6772     13.45396    13.353653    13.253679    2.1735283    2156.8219    1558.6336 
 1262000    736.37474   -894.13656            0   -881.95302    3479.1103     13.45396    13.353653    13.253679      2.69993    2158.6805    1556.7765 
 1263000    885.28856   -895.49707            0   -880.84971    7656.2103     13.45396    13.353653    13.253679    2.0242039    2160.5358     1554.917 
 1264000    746.12003   -891.78112            0   -879.43634    8560.4754     13.45396    13.353653    13.253679    1.7525287    2162.3929    1553.0588 
 1265000    766.64834   -894.40963            0    -881.7252    6434.8747     13.45396    13.353653    13.253679    1.9748018    2164.2493    1551.2002 
 1266000    811.23403   -892.72678            0   -879.30467    5418.5575     13.45396    13.353653    13.253679    2.2859526    2166.1055    1549.3414 
 1267000    826.72267   -893.07194            0   -879.39356     6288.252     13.45396    13.353653    13.253679     2.213655    2167.9604    1547.4816 
 1268000    726.36014   -893.56685            0     -881.549    2413.4913     13.45396    13.353653    13.253679    2.3328205    2169.8174    1545.6234 
 1269000    881.54497    -894.2768            0   -879.69138     6522.991     13.45396    13.353653    13.253679    2.1310654    2171.6722    1543.7635 
 1270000     816.0961   -892.93687            0   -879.43432     5991.735     13.45396    13.353653    13.253679    2.2049959    2173.5399     1541.913 
 1271000     800.6264   -894.49775            0   -881.25114    4903.4531     13.45396    13.353653    13.253679     2.629701    2175.3971    1540.0548 
 1272000    789.73933   -893.56141            0   -880.49494    8062.9253     13.45396    13.353653    13.253679    2.9027148    2177.2524    1538.1954 
 1273000    840.97027   -892.31458            0   -878.40048    7041.4441     13.45396    13.353653    13.253679    2.4883392    2179.1068    1536.3353 
 1274000    780.15179   -894.90973            0   -882.00189    5139.2794     13.45396    13.353653    13.253679    2.5898346    2180.9649    1534.4779 
 1275000    834.01362   -894.39256            0   -880.59355    4633.3779     13.45396    13.353653    13.253679    2.5727796    2182.8221    1532.6198 
 1276000    885.14303   -892.64616            0   -878.00121    10385.135     13.45396    13.353653    13.253679    2.6293531    2184.6779    1530.7607 
 1277000    838.80926   -896.11719            0   -882.23884    5287.9951     13.45396    13.353653    13.253679    2.5126532    2186.5341    1528.9019 
 1278000    794.18536   -893.54518            0   -880.40515    3740.2934     13.45396    13.353653    13.253679    1.7719325    2188.3892    1527.0424 
 1279000    767.11852   -892.49658            0   -879.80437    7491.5513     13.45396    13.353653    13.253679    2.0474765    2190.2489     1525.186 
 1280000    728.63313   -894.95369            0   -882.89824    3022.5867     13.45396    13.353653    13.253679    1.7770794    2192.1033     1523.326 
 1281000     781.0706   -893.09563            0   -880.17258    5041.3333     13.45396    13.353653    13.253679    2.6121673    2193.9614    1521.4686 
 1282000    765.38071   -893.78566            0   -881.12221    6406.7824     13.45396    13.353653    13.253679    2.6029926    2195.8166    1519.6091 
 1283000    725.80371   -895.43853            0   -883.42989    4040.6321     13.45396    13.353653    13.253679    1.8851387    2197.6758    1517.7524 
 1284000    803.39555    -894.0905            0   -880.79808    5622.3297     13.45396    13.353653    13.253679    2.1962484    2199.5401    1515.8993 
 1285000    827.78041    -893.9379            0   -880.24202    5076.5654     13.45396    13.353653    13.253679     2.797415    2201.3941     1514.039 
 1286000    654.02162   -894.25884            0   -883.43786    3920.8741     13.45396    13.353653    13.253679     2.003683    2203.2475    1512.1783 
 1287000    889.52601   -895.36916            0   -880.65169    5034.9789     13.45396    13.353653    13.253679    2.0953438    2205.1024    1510.3187 
 1288000     805.4616   -894.23532            0   -880.90871    7344.7388     13.45396    13.353653    13.253679    2.3668752    2206.9565    1508.4585 
 1289000    785.90156   -896.91011            0   -883.90713    5824.7991     13.45396    13.353653    13.253679    2.3066241    2208.8122    1506.5994 
 1290000    805.20861   -894.62561            0   -881.30319    5031.7902     13.45396    13.353653    13.253679    3.3805955    2210.6642    1504.7378 
 1291000    852.75289    -894.4563            0   -880.34725    6965.3738     13.45396    13.353653    13.253679    2.3165412    2212.5184    1502.8777 
 1292000    799.54224   -894.50603            0   -881.27736    3269.6469     13.45396    13.353653    13.253679    2.6864182    2214.3795    1501.0223 
 1293000    743.44011   -894.85429            0   -882.55385    3423.9583     13.45396    13.353653    13.253679    2.1739584    2216.2345    1499.1628 
 1294000     907.5665   -894.27025            0   -879.25429    6609.4985     13.45396    13.353653    13.253679    2.2360555    2218.0907    1497.3041 
 1295000    748.49939   -893.83147            0   -881.44732     5050.839     13.45396    13.353653    13.253679    2.3664575    2219.9482    1495.4463 
 1296000    771.11588   -893.21877            0   -880.46042    5953.5135     13.45396    13.353653    13.253679    1.9251952    2221.8034    1493.5869 
 1297000    874.43998   -893.90432            0   -879.43645    6289.7088     13.45396    13.353653    13.253679    2.1827815    2223.6595    1491.7281 
 1298000    737.25408   -894.16319            0    -881.9651    3497.4306     13.45396    13.353653    13.253679    2.7378751     2225.515    1489.8689 
 1299000    774.20237   -891.77137            0   -878.96196       6085.2     13.45396    13.353653    13.253679    2.4107716    2227.3707    1488.0099 
 1300000    845.80142   -893.20128            0   -879.20724    7621.4844     13.45396    13.353653    13.253679    3.2910059     2229.225      1486.15 
 1301000    749.07826   -893.96302            0   -881.56929    6287.4861     13.45396    13.353653    13.253679    2.0554091    2231.0836    1484.2929 
 1302000    846.74047   -893.62279            0   -879.61322    5474.1829     13.45396    13.353653    13.253679    2.7703588    2232.9389    1482.4337 
 1303000    795.35532   -892.64188            0   -879.48249    6381.1695     13.45396    13.353653    13.253679    2.3270361    2234.7993    1480.5777 
 1304000    692.14206   -892.62797            0   -881.17628    2290.9319     13.45396    13.353653    13.253679    2.2887281    2236.6522    1478.7169 
 1305000    836.54179   -894.04685            0   -880.20602    5480.8345     13.45396    13.353653    13.253679    2.7091722    2238.5078    1476.8579 
 1306000    866.92909   -892.52973            0   -878.18613     7647.147     13.45396    13.353653    13.253679    2.7471615     2240.364    1474.9992 
 1307000    775.93089    -894.4313            0   -881.59329    2538.4627     13.45396    13.353653    13.253679     2.699702    2242.2197    1473.1402 
 1308000    857.04309   -894.33405            0   -880.15401    3746.0182     13.45396    13.353653    13.253679    2.4831384     2244.079    1471.2836 
 1309000    908.96206     -892.499            0   -877.45995    6352.3061     13.45396    13.353653    13.253679    3.5930911    2245.9329    1469.4234 
 1310000    781.48886   -894.83401            0   -881.90404    4884.9462     13.45396    13.353653    13.253679    2.5101784    2247.7892    1467.5649 
 1311000    780.36911   -893.35843            0   -880.44699    5070.1908     13.45396    13.353653    13.253679    2.7058825    2249.6477    1465.7077 
 1312000    793.67364   -892.60463            0   -879.47306    7681.7085     13.45396    13.353653    13.253679    1.7431691    2251.5058    1463.8503 
 1313000    794.51316   -895.62123            0   -882.47577    4015.2166     13.45396    13.353653    13.253679    2.2560509    2253.3667    1461.9947 
 1314000    792.45436   -892.96155            0   -879.85016    4689.5046     13.45396    13.353653    13.253679    2.7829694    2255.2234    1460.1364 
 1315000    848.53651   -895.21532            0   -881.17603    4758.1459     13.45396    13.353653    13.253679    1.9924358    2257.0793    1458.2776 
 1316000    690.70866   -894.26861            0   -882.84063     5853.527     13.45396    13.353653    13.253679    2.0015085    2258.9319    1456.4166 
 1317000    836.85681   -893.92705            0     -880.081    7566.8291     13.45396    13.353653    13.253679    2.5156125    2260.7838    1454.5552 
 1318000    868.82311   -895.68333            0   -881.30839    4312.6348     13.45396    13.353653    13.253679    2.2347858    2262.6395    1452.6963 
 1319000     696.5612   -894.34768            0   -882.82287    5089.6048     13.45396    13.353653    13.253679    3.0371437    2264.4931    1450.8361 
 1320000    812.13427   -894.28438            0   -880.84738    5893.2034     13.45396    13.353653    13.253679    2.4097625    2266.3474    1448.9762 
 1321000    777.17096    -893.4401            0   -880.58157    8871.7118     13.45396    13.353653    13.253679    2.3742665    2268.2023    1447.1168 
 1322000    723.72461   -894.97317            0   -882.99893    2440.9422     13.45396    13.353653    13.253679    2.1667148    2270.0562    1445.2567 
 1323000    875.99655   -894.73157            0   -880.23794    5622.3059     13.45396    13.353653    13.253679    2.3769541    2271.9129    1443.3984 
 1324000    842.19953   -894.35917            0   -880.42473    7736.7038     13.45396    13.353653    13.253679    2.3113913    2273.7684    1441.5394 
 1325000    741.85073   -895.17129            0   -882.89715    5108.9088     13.45396    13.353653    13.253679    1.9728722    2275.6237    1439.6803 
 1326000    644.00485   -894.66616            0    -884.0109    228.51355     13.45396    13.353653    13.253679    2.7671726    2277.4764    1437.8195 
 1327000    828.58479   -894.49779            0   -880.78861    6045.7726     13.45396    13.353653    13.253679    2.1308443    2279.3346    1435.9623 
 1328000    831.86345   -893.57478            0   -879.81135    6320.0894     13.45396    13.353653    13.253679    2.9675351    2281.1902    1434.1033 
 1329000    768.10179   -895.76684            0   -883.05837    3265.0069     13.45396    13.353653    13.253679    1.8824964    2283.0464    1432.2447 
 1330000     738.8132   -893.17561            0   -880.95172      3714.65     13.45396    13.353653    13.253679    2.3151849    2284.9032    1430.3866 
 1331000    810.61808   -894.12362            0   -880.71171    3390.1697     13.45396    13.353653    13.253679    2.0753364    2286.7615    1428.5293 
 1332000    723.52114   -894.29833            0   -882.32745    4209.4712     13.45396    13.353653    13.253679    2.1600947     2288.617    1426.6703 
 1333000    746.25638   -894.79964            0    -882.4526    6430.7161     13.45396    13.353653    13.253679     2.552434    2290.4721    1424.8111 
 1334000    865.06423   -894.29498            0   -879.98223    4197.0197     13.45396    13.353653    13.253679     1.986655    2292.3309    1422.9542 
 1335000    753.64352   -895.05889            0   -882.58964    2659.9569     13.45396    13.353653    13.253679    2.1206544    2294.1889    1421.0968 
 1336000    693.43145   -893.96138            0   -882.48835    3714.9709     13.45396    13.353653    13.253679    2.2483464    2296.0432    1419.2371 
 1337000    824.39737   -893.20777            0   -879.56787    7022.5455     13.45396    13.353653    13.253679     2.750705    2297.8965    1417.3767 
 1338000    814.51934   -895.76098            0   -882.28451      4155.87     13.45396    13.353653    13.253679    2.4139185    2299.7486    1415.5157 
 1339000    829.46177   -894.39964            0   -880.67594    4609.1605     13.45396    13.353653    13.253679    1.8871403    2301.6074    1413.6588 
 1340000    815.07581    -893.3139            0   -879.82823    5731.8581     13.45396    13.353653    13.253679    2.1765148      2303.46     1411.798 
 1341000    801.85879   -895.48304            0   -882.21605    -108.3189     13.45396    13.353653    13.253679    1.8072391    2305.3173    1409.9402 
 1342000    893.47298   -893.93487            0    -879.1521    8670.9702     13.45396    13.353653    13.253679    2.9519527    2307.1725    1408.0811 
 1343000    841.92135   -894.19909            0   -880.26925    5598.1132     13.45396    13.353653    13.253679    2.5928092    2309.0294    1406.2231 
 1344000    760.52614    -893.7801            0   -881.19697    4155.1463     13.45396    13.353653    13.253679     2.649023    2310.8828    1404.3628 
 1345000    750.39293   -892.89784            0   -880.48237    5390.2465     13.45396    13.353653    13.253679    2.1638253    2312.7352    1402.5021 
 1346000    858.91782   -894.92235            0    -880.7113    6558.2271     13.45396    13.353653    13.253679    1.9769779    2314.5904     1400.643 
 1347000    731.95995   -893.72326            0   -881.61276    4164.7208     13.45396    13.353653    13.253679    1.9862913    2316.4465    1398.7845 
 1348000    753.89695   -895.14199            0   -882.66854    4008.8783     13.45396    13.353653    13.253679    2.0576576    2318.3021    1396.9256 
 1349000    802.01128   -892.82211            0   -879.55259    6228.7711     13.45396    13.353653    13.253679    3.3107826    2320.1572    1395.0665 
 1350000    771.61805    -894.1971            0   -881.43045    6588.6571     13.45396    13.353653    13.253679    2.3659969    2322.0115    1393.2069 
 1351000    753.36711   -895.47026            0   -883.00558    3193.7088     13.45396    13.353653    13.253679    2.1836511    2323.8678    1391.3485 
 1352000    767.85905   -892.66295            0   -879.95849    7785.9725     13.45396    13.353653    13.253679    3.2121428    2325.7214    1389.4885 
 1353000    761.72682   -894.58988            0   -881.98688    3401.1154     13.45396    13.353653    13.253679    2.4924684    2327.5731    1387.6274 
 1354000    768.00862   -893.43713            0   -880.73019     7393.548     13.45396    13.353653    13.253679    2.3150271    2329.4304    1385.7696 
 1355000    905.51357   -894.26869            0    -879.2867     7234.172     13.45396    13.353653    13.253679    2.5811155    2331.2864    1383.9111 
 1356000    755.72998   -893.85522            0   -881.35145     1933.654     13.45396    13.353653    13.253679    3.0337798    2333.1418    1382.0521 
 1357000     850.4614   -894.73898            0   -880.66784    6907.4153     13.45396    13.353653    13.253679    2.4814578    2334.9965    1380.1929 
 1358000    872.69541   -893.29776            0   -878.85876    4575.4259     13.45396    13.353653    13.253679    2.1036529    2336.8564    1378.3366 
 1359000     745.6236   -893.63592            0   -881.29936    5176.4949     13.45396    13.353653    13.253679    2.2270673    2338.7159    1376.4802 
 1360000     719.2617   -893.53368            0   -881.63328    6869.8983     13.45396    13.353653    13.253679    2.0416519    2340.5694    1374.6201 
 1361000     850.3041   -892.47783            0   -878.40929    8090.4178     13.45396    13.353653    13.253679    2.6944006     2342.425    1372.7613 
 1362000    841.98766   -894.17567            0   -880.24473    5403.5739     13.45396    13.353653    13.253679    2.5042477    2344.2797    1370.9021 
 1363000    726.65218   -894.19291            0   -882.17023    5386.9496     13.45396    13.353653    13.253679    2.2793329    2346.1357    1369.0435 
 1364000    794.72871   -892.38508            0   -879.23605    7458.8202     13.45396    13.353653    13.253679    2.7611417    2347.9893    1367.1837 
 1365000    858.33089   -894.70363            0   -880.50229    4478.3876     13.45396    13.353653    13.253679     2.145152    2349.8442    1365.3245 
 1366000    754.40178   -894.09362            0   -881.61182     6111.676     13.45396    13.353653    13.253679    2.1179307    2351.6984     1363.465 
 1367000    832.92607   -893.96323            0   -880.18222    6324.0807     13.45396    13.353653    13.253679    1.9554425    2353.5551    1361.6069 
 1368000    946.02242   -893.67631            0   -878.02409    8659.8682     13.45396    13.353653    13.253679    2.5695124    2355.4083    1359.7468 
 1369000    851.51824   -895.38473            0   -881.29611    3963.6655     13.45396    13.353653    13.253679    2.4344833     2357.268    1357.8904 
 1370000    785.79635   -894.31223            0     -881.311     6147.594     13.45396    13.353653    13.253679    2.1447715    2359.1226    1356.0311 
 1371000     876.7426   -893.17934            0   -878.67338    9633.5622     13.45396    13.353653    13.253679    2.1670235    2360.9792     1354.173 
 1372000     735.1697    -894.3755            0    -882.2119    3994.8416     13.45396    13.353653    13.253679    2.8067777    2362.8372    1352.3157 
 1373000    767.41937   -893.72668            0    -881.0295    5219.9015     13.45396    13.353653    13.253679    1.8823313    2364.6906    1350.4557 
 1374000    819.95146   -892.74865            0   -879.18231    6443.3906     13.45396    13.353653    13.253679    2.1644772    2366.5461    1348.5969 
 1375000     689.7586   -894.07388            0   -882.66162    5171.6002     13.45396    13.353653    13.253679    2.4897579    2368.4017    1346.7382 
 1376000    905.40609   -895.03193            0   -880.05172    5010.3612     13.45396    13.353653    13.253679    2.1134299    2370.2579    1344.8799 
 1377000    763.66135    -892.9551            0   -880.32009    6056.0221     13.45396    13.353653    13.253679    3.1716397    2372.1145    1343.0217 
 1378000    699.11317    -895.7619            0   -884.19486     1926.608     13.45396    13.353653    13.253679    1.5537324    2373.9704    1341.1632 
 1379000    742.74682   -895.38868            0   -883.09971    2399.0578     13.45396    13.353653    13.253679    2.2177927    2375.8246    1339.3038 
 1380000    868.29303   -894.54161            0   -880.17545     4426.664     13.45396    13.353653    13.253679    2.2195471    2377.6781    1337.4439 
 1381000    769.63277    -892.9917            0   -880.25789    6444.8923     13.45396    13.353653    13.253679    2.5967586    2379.5316    1335.5841 
 1382000    660.29402   -893.72758            0   -882.80282    5399.7456     13.45396    13.353653    13.253679    2.4375635    2381.3852    1333.7243 
 1383000    800.31853   -893.78451            0     -880.543    5296.6246     13.45396    13.353653    13.253679    2.1135949    2383.2398    1331.8651 
 1384000    815.01794   -894.36862            0    -880.8839    4136.5894     13.45396    13.353653    13.253679    2.8740827    2385.0963     1330.007 
 1385000    719.08147   -895.00323            0   -883.10581    3115.0209     13.45396    13.353653    13.253679    2.7142059    2386.9554    1328.1503 
 1386000    733.80223   -893.66207            0   -881.52109    4594.1633     13.45396    13.353653    13.253679    2.6509517    2388.8155    1326.2942 
 1387000    828.63838   -893.94514            0   -880.23507    3246.3225     13.45396    13.353653    13.253679    1.7104723    2390.6688    1324.4342 
 1388000    752.44946   -895.11194            0   -882.66244    3606.9728     13.45396    13.353653    13.253679    2.5130297    2392.5252     1322.576 
 1389000    843.60737   -895.84665            0   -881.88892    2757.5962     13.45396    13.353653    13.253679    2.3410746    2394.3817    1320.7179 
 1390000    856.61477   -894.15158            0   -879.97863     4444.002     13.45396    13.353653    13.253679    2.3390254    2396.2389    1318.8602 
 1391000    766.44045   -895.09041            0   -882.40942    4237.2053     13.45396    13.353653    13.253679    2.2219487    2398.0939    1317.0012 
 1392000    825.19267   -894.47232            0   -880.81926    5112.0809     13.45396    13.353653    13.253679    2.1649583    2399.9506    1315.1432 
 1393000    825.31281   -893.59815            0   -879.94311    5825.9725     13.45396    13.353653    13.253679    2.2571866    2401.8069     1313.285 
 1394000    760.50121   -894.93445            0   -882.35173     3318.487     13.45396    13.353653    13.253679     2.315439    2403.6641    1311.4272 
 1395000    784.97189   -893.31255            0   -880.32495    3750.8897     13.45396    13.353653    13.253679    2.6811758      2405.52    1309.5688 
 1396000    729.78586   -892.64287            0   -880.56834    6957.8641     13.45396    13.353653    13.253679    3.2181483    2407.3758    1307.7103 
 1397000    763.46598   -894.37572            0   -881.74395    4078.0008     13.45396    13.353653    13.253679    2.6783054    2409.2325    1305.8523 
 1398000    783.65058   -893.66727            0   -880.70153    4251.7525     13.45396    13.353653    13.253679    1.9659883     2411.088    1303.9937 
 1399000    869.75355   -893.29714            0   -878.90681    6197.0706     13.45396    13.353653    13.253679    2.4109515    2412.9433    1302.1349 
 1400000    748.76842   -894.57525            0   -882.18665    4420.8614     13.45396    13.353653    13.253679    2.1346995    2414.7992    1300.2765 
 1401000    701.20123   -891.97139            0   -880.36981    5605.5001     13.45396    13.353653    13.253679    3.9994825    2416.6575    1298.4194 
 1402000    838.17003   -893.57257            0    -879.7048    7420.1962     13.45396    13.353653    13.253679    2.3424263    2418.5165    1296.5626 
 1403000    809.29167   -896.03558            0   -882.64561    3813.0116     13.45396    13.353653    13.253679    2.0842571     2420.374    1294.7051 
 1404000    823.43595    -893.3438            0   -879.71981    4051.4277     13.45396    13.353653    13.253679    3.7549859    2422.2375    1292.8507 
 1405000    788.28478   -893.62993            0   -880.58752     8011.876     13.45396    13.353653    13.253679    2.3673916     2424.096    1290.9937 
 1406000    761.05468   -894.59333            0   -882.00145      6925.21     13.45396    13.353653    13.253679    2.1021488    2425.9494    1289.1339 
 1407000    732.34495    -894.6287            0   -882.51184    4004.9998     13.45396    13.353653    13.253679    2.2896822    2427.8052    1287.2755 
 1408000    894.01819   -894.40258            0   -879.61078    7063.5221     13.45396    13.353653    13.253679    2.3522578    2429.6616    1285.4173 
 1409000    803.32719   -895.32582            0   -882.03453    8000.8369     13.45396    13.353653    13.253679     2.063194    2431.5168    1283.5585 
 1410000    782.71301   -895.24003            0   -882.28981     6942.726     13.45396    13.353653    13.253679     3.709151    2433.3706     1281.699 
 1411000    803.89945   -894.15123            0   -880.85047    6280.2842     13.45396    13.353653    13.253679    1.8900212    2435.2246    1279.8396 
 1412000    759.89902   -892.91622            0   -880.34346    10052.936     13.45396    13.353653    13.253679     2.260979    2437.0834    1277.9827 
 1413000    789.33155   -895.57119            0   -882.51146    1428.1599     13.45396    13.353653    13.253679    2.0650311     2438.939    1276.1242 
 1414000    877.32079   -894.83094            0    -880.3154    6500.2848     13.45396    13.353653    13.253679    2.6701041    2440.7958    1274.2663 
 1415000     851.5642   -894.19677            0   -880.10738    6728.8789     13.45396    13.353653    13.253679    2.6627386    2442.6502    1272.4071 
 1416000    812.50362   -895.03538            0   -881.59226    5725.9332     13.45396    13.353653    13.253679    2.0466417    2444.5074    1270.5494 
 1417000     745.3959   -893.40661            0   -881.07381    8453.0337     13.45396    13.353653    13.253679    3.2539567    2446.3673    1268.6932 
 1418000    843.50854   -894.39908            0   -880.44297    8030.0433     13.45396    13.353653    13.253679    2.1380938    2448.2317    1266.8392 
 1419000    842.12477   -892.82159            0   -878.88839    10564.326     13.45396    13.353653    13.253679    2.5214089    2450.0897    1264.9819 
 1420000     751.3318   -894.48324            0   -882.05223    5376.3851     13.45396    13.353653    13.253679    2.3581172     2451.944    1263.1226 
 1421000    791.21874    -893.5691            0   -880.47815    5470.7237     13.45396    13.353653    13.253679    2.0221519    2453.7985    1261.2636 
 1422000    848.84565   -892.02761            0    -877.9832    9595.2679     13.45396    13.353653    13.253679    3.9943494    2455.6562    1259.4061 
 1423000    757.33257   -893.19037            0   -880.66008    8398.1963     13.45396    13.353653    13.253679    2.8401524    2457.5158    1257.5496 
 1424000    717.11128   -894.07007            0   -882.20525    6700.9217     13.45396    13.353653    13.253679    2.1252629    2459.3748    1255.6929 
 1425000    824.61929   -892.36398            0   -878.72041    6214.1388     13.45396    13.353653    13.253679    2.8533069    2461.2311    1253.8347 
 1426000    799.70287   -893.97683            0   -880.74551    5087.8544     13.45396    13.353653    13.253679    2.3520094    2463.0856    1251.9756 
 1427000    694.00592   -892.59078            0   -881.10824    6606.8107     13.45396    13.353653    13.253679    2.6122013    2464.9427    1250.1179 
 1428000    851.02981   -894.75843            0   -880.67788    6405.4747     13.45396    13.353653    13.253679    3.3141738    2466.7989    1248.2597 
 1429000    794.76696   -893.79379            0   -880.64413    6829.4827     13.45396    13.353653    13.253679    1.8838272    2468.6547    1246.4013 
 1430000    758.33443   -893.25207            0    -880.7052     6656.405     13.45396    13.353653    13.253679    2.8286677    2470.5085    1244.5419 
 1431000    790.79903   -894.73169            0   -881.64769    5079.3448     13.45396    13.353653    13.253679    1.9838277    2472.3639    1242.6833 
 1432000    723.19866   -893.98462            0   -882.01908    6658.6745     13.45396    13.353653    13.253679     2.776186    2474.2251    1240.8276 
 1433000    852.45712   -893.42575            0    -879.3216    5375.3365     13.45396    13.353653    13.253679    2.2548961    2476.0827    1238.9701 
 1434000    814.15592   -894.93579            0   -881.46533    6479.9755     13.45396    13.353653    13.253679    2.2943238    2477.9359    1237.1104 
 1435000    708.64065   -892.90582            0   -881.18114    6972.5799     13.45396    13.353653    13.253679    2.2941911    2479.7892    1235.2508 
 1436000    858.89033   -893.81849            0   -879.60789    6960.3202     13.45396    13.353653    13.253679    2.0956527    2481.6429    1233.3914 
 1437000    806.45145   -894.54841            0   -881.20543    5309.9279     13.45396    13.353653    13.253679    2.6930418    2483.5068     1231.537 
 1438000    801.90839   -895.21514            0   -881.94733    2851.7871     13.45396    13.353653    13.253679     2.128175    2485.3629    1229.6788 
 1439000    916.24688   -894.27481            0   -879.11524    7225.6109     13.45396    13.353653    13.253679    2.3742704    2487.2185    1227.8203 
 1440000    763.48521   -893.66022            0   -881.02813      5192.91     13.45396    13.353653    13.253679    2.2371162    2489.0761    1225.9629 
 1441000     819.6444   -895.22764            0   -881.66638    6207.3392     13.45396    13.353653    13.253679    2.3811987    2490.9336    1224.1053 
 1442000    845.80144   -892.41986            0   -878.42582    10477.506     13.45396    13.353653    13.253679    2.4742124    2492.7921    1222.2483 
 1443000    740.79861   -893.86015            0   -881.60342    5837.9747     13.45396    13.353653    13.253679    2.2581912    2494.6507    1220.3913 
 1444000    855.99282   -895.05182            0   -880.88917    4270.3323     13.45396    13.353653    13.253679     2.698882    2496.5063    1218.5328 
 1445000    965.36475   -892.86131            0   -876.88906    6494.7767     13.45396    13.353653    13.253679    2.3275123     2498.366    1216.6764 
 1446000    854.36678   -893.93601            0   -879.80026    3505.9477     13.45396    13.353653    13.253679    1.6905388    2500.2208    1214.8175 
 1447000    828.54016   -895.54713            0   -881.83869    4090.5966     13.45396    13.353653    13.253679    1.9148196    2502.0773    1212.9595 
 1448000    797.42241    -893.4524            0   -880.25881    5716.7868     13.45396    13.353653    13.253679    2.2208183    2503.9348     1211.102 
 1449000    873.57666   -894.09364            0   -879.64005    7748.4412     13.45396    13.353653    13.253679    1.6643651     2505.798    1209.2472 
 1450000    759.83433   -894.02309            0   -881.45141    3166.8218     13.45396    13.353653    13.253679     1.739391    2507.6535    1207.3887 
 1451000    790.73805    -893.3935            0    -880.3105    6896.2713     13.45396    13.353653    13.253679    3.0203503    2509.5095    1205.5305 
 1452000    928.67848   -892.88185            0   -877.51659    7795.0794     13.45396    13.353653    13.253679    2.2266177    2511.3643    1203.6716 
 1453000     786.4448   -894.36303            0   -881.35107    6366.7753     13.45396    13.353653    13.253679     2.037243     2513.224    1201.8152 
 1454000    717.81973   -893.11633            0   -881.23978    6004.3525     13.45396    13.353653    13.253679    2.6783384    2515.0811    1199.9575 
 1455000    939.28834   -893.83311            0    -878.2923    9055.4983     13.45396    13.353653    13.253679    2.3739602    2516.9365    1198.0989 
 1456000    782.10861   -894.84469            0   -881.90447    3532.7546     13.45396    13.353653    13.253679    1.8792175    2518.7944    1196.2416 
 1457000    842.64528   -894.74847            0   -880.80665    6546.7632     13.45396    13.353653    13.253679    2.0708575    2520.6499    1194.3831 
 1458000    884.52546   -893.01165            0   -878.37691    7412.2991     13.45396    13.353653    13.253679    2.0612337    2522.5054    1192.5246 
 1459000    891.93919   -896.52581            0   -881.76841    3693.2093     13.45396    13.353653    13.253679    2.1902463    2524.3663    1190.6687 
 1460000    737.80744   -893.48384            0   -881.27659    4201.8787     13.45396    13.353653    13.253679    2.7810143    2526.2291    1188.8137 
 1461000    881.17919   -893.58951            0   -879.01014     5495.248     13.45396    13.353653    13.253679    3.1025185    2528.0911    1186.9583 
 1462000    723.91271   -892.65483            0   -880.67748    6727.4018     13.45396    13.353653    13.253679    1.7697356    2529.9479    1185.1004 
 1463000    784.47683    -894.1206            0    -881.1412     4602.216     13.45396    13.353653    13.253679    2.0126125    2531.8084    1183.2443 
 1464000     824.6792   -895.00783            0   -881.36327    4643.1623     13.45396    13.353653    13.253679    2.5858139    2533.6634    1181.3856 
 1465000    862.16315   -893.43604            0    -879.1713    10707.487     13.45396    13.353653    13.253679    3.1067485    2535.5171    1179.5262 
 1466000    783.27965   -895.11368            0   -882.15409    5407.6331     13.45396    13.353653    13.253679    3.2117007    2537.3736    1177.6683 
 1467000    850.96105   -895.43437            0   -881.35496    4556.7545     13.45396    13.353653    13.253679    2.5938188    2539.2462    1175.8178 
 1468000    846.24595   -893.97476            0   -879.97336    5465.6433     13.45396    13.353653    13.253679    2.3309312    2541.1012     1173.959 
 1469000    789.51898    -894.1099            0   -881.04707     6947.947     13.45396    13.353653    13.253679    2.1476458    2542.9556    1172.1001 
 1470000    771.16109   -895.36974            0   -882.61065    3991.2528     13.45396    13.353653    13.253679    2.1167226    2544.8132    1170.2426 
 1471000    725.62961   -893.73727            0   -881.73152    6646.4861     13.45396    13.353653    13.253679    3.3473725    2546.6741    1168.3866 
 1472000    882.02386   -894.34117            0   -879.74782    6510.4355     13.45396    13.353653    13.253679     2.584333     2548.539    1166.5324 
 1473000    683.60985   -894.32017            0   -883.00964    1840.0239     13.45396    13.353653    13.253679    2.2072082    2550.4376    1164.6937 
 1474000      715.412   -894.02582            0   -882.18911    4091.1924     13.45396    13.353653    13.253679    2.5529936     2552.294    1162.8356 
 1475000    893.69393   -894.93548            0   -880.14905    4939.8413     13.45396    13.353653    13.253679    2.2007333     2554.151    1160.9777 
 1476000     905.6538   -895.46018            0   -880.47587    4559.0874     13.45396    13.353653    13.253679    2.5745563    2556.0058    1159.1189 
 1477000    762.92067   -895.27574            0   -882.65299    3964.5892     13.45396    13.353653    13.253679    2.0356636    2557.8628    1157.2611 
 1478000    778.34478   -892.55393            0   -879.67598    4551.4356     13.45396    13.353653    13.253679      2.03736    2559.7169     1155.402 
 1479000    814.94775   -894.26683            0   -880.78328    6677.3934     13.45396    13.353653    13.253679    2.0975349    2561.5749    1153.5446 
 1480000    762.73755   -894.97654            0   -882.35682    3339.1146     13.45396    13.353653    13.253679    2.5047378     2563.436    1151.6886 
 1481000    723.17935   -895.09813            0   -883.13291    4414.1543     13.45396    13.353653    13.253679    1.7930761    2565.2926    1149.8307 
 1482000     828.8328   -894.07794            0   -880.36466    4276.8478     13.45396    13.353653    13.253679    2.7378665    2567.1473    1147.9718 
 1483000    877.38549   -896.28475            0   -881.76814    4927.4847     13.45396    13.353653    13.253679    1.7856312    2569.0027    1146.1133 
 1484000    721.99702   -894.96102            0   -883.01537      3509.39     13.45396    13.353653    13.253679    2.1922345    2570.8588    1144.2551 
 1485000    926.15914   -895.56821            0   -880.24463    5894.5772     13.45396    13.353653    13.253679    2.5717353     2572.718    1142.3983 
 1486000    772.86988   -894.55384            0   -881.76648    5936.1919     13.45396    13.353653    13.253679    2.3231635    2574.5739    1140.5399 
 1487000    719.38221   -894.60579            0   -882.70339    6467.8063     13.45396    13.353653    13.253679    2.8161142    2576.4301    1138.6818 
 1488000    851.20394   -893.55007            0   -879.46664    -529.1137     13.45396    13.353653    13.253679    2.2584761    2578.2905    1136.8255 
 1489000    717.03861    -893.8539            0   -881.99028    4241.9087     13.45396    13.353653    13.253679    2.5188432    2580.1487    1134.9682 
 1490000    769.73214   -894.33526            0   -881.59981    5571.8925     13.45396    13.353653    13.253679    1.9896471    2582.0033    1133.1094 
 1491000    876.13274   -893.97989            0   -879.48402    3974.2181     13.45396    13.353653    13.253679    2.1976354    2583.8717    1131.2566 
 1492000    733.62167   -894.37768            0   -882.23969    7071.3132     13.45396    13.353653    13.253679    2.1946057    2585.7337    1129.4009 
 1493000    886.19328   -894.30469            0   -879.64235      6798.26     13.45396    13.353653    13.253679    2.3883328    2587.6018    1127.5479 
 1494000    810.04633   -893.35786            0    -879.9554    6483.6345     13.45396    13.353653    13.253679    3.0515976    2589.4678     1125.694 
 1495000    787.13048   -894.14011            0    -881.1168    5999.5245     13.45396    13.353653    13.253679    2.3187046    2591.3358     1123.841 
 1496000    838.76004   -894.74369            0   -880.86615    6530.6685     13.45396    13.353653    13.253679    2.1336991    2593.2032    1121.9876 
 1497000    852.55858   -893.42285            0   -879.31701    6486.6234     13.45396    13.353653    13.253679     2.146555    2595.0754    1120.1363 
 1498000     738.6833   -894.51114            0   -882.28941    4113.6043     13.45396    13.353653    13.253679    2.5148913    2596.9433    1118.2832 
 1499000    848.44975    -893.9189            0   -879.88104    6084.9026     13.45396    13.353653    13.253679    2.4245377    2598.8099    1116.4294 
 1500000    865.01229   -893.50643            0   -879.19454    7398.6687     13.45396    13.353653    13.253679    2.1631296    2600.6731    1114.5742 
 1501000    787.47187   -894.78242            0   -881.75346    2219.5503     13.45396    13.353653    13.253679    2.3188975    2602.5399    1112.7205 
 1502000    838.50514   -893.08976            0   -879.21645    7004.8451     13.45396    13.353653    13.253679    2.2368674    2604.4031    1110.8652 
 1503000    840.78168   -893.41408            0   -879.50309     7782.282     13.45396    13.353653    13.253679    2.2537224    2606.2629    1109.0085 
 1504000    765.42853   -893.82767            0   -881.16343    9399.1728     13.45396    13.353653    13.253679    2.5744451    2608.1189    1107.1502 
 1505000    813.18835   -893.53909            0   -880.08464    4724.5509     13.45396    13.353653    13.253679    2.1830778    2609.9811    1105.2945 
 1506000    949.59579   -894.24163            0   -878.53028    3546.5042     13.45396    13.353653    13.253679    3.5194874    2611.8456    1103.4397 
 1507000    835.70323   -895.02912            0   -881.20216    5556.4319     13.45396    13.353653    13.253679    2.5023623    2613.7032    1101.5821 
 1508000    768.65365   -893.00371            0    -880.2861    5420.8873     13.45396    13.353653    13.253679    1.9602269     2615.562    1099.7249 
 1509000    925.68314   -893.82939            0   -878.51368     7928.715     13.45396    13.353653    13.253679    2.1316141    2617.4201    1097.8675 
 1510000    779.56349   -894.58351            0    -881.6854    8811.2341     13.45396    13.353653    13.253679    2.2602876    2619.2772    1096.0096 
 1511000    806.66887   -893.18147            0   -879.83489     7325.919     13.45396    13.353653    13.253679    2.7739313    2621.1319    1094.1507 
 1512000    912.72449   -894.10678            0   -879.00548    7858.3476     13.45396    13.353653    13.253679    3.3295284    2622.9899    1092.2933 
 1513000    756.57039    -894.7027            0   -882.18501    4437.4847     13.45396    13.353653    13.253679    2.4422881    2624.8488    1090.4361 
 1514000    903.76344   -894.51818            0   -879.56514     3203.576     13.45396    13.353653    13.253679    2.4495112    2626.7041    1088.5775 
 1515000    841.20748    -895.5039            0   -881.58587     4447.885     13.45396    13.353653    13.253679    3.0906446    2628.5606    1086.7194 
 1516000    762.15251   -894.40895            0   -881.79891     4564.842     13.45396    13.353653    13.253679    1.6052071    2630.4178    1084.8616 
 1517000    813.86933   -893.19002            0   -879.72431    5446.8871     13.45396    13.353653    13.253679    2.8270683    2632.2747    1083.0037 
 1518000    737.25498   -895.26176            0   -883.06365    2668.7057     13.45396    13.353653    13.253679    2.7659403    2634.1371     1081.148 
 1519000    777.24295   -894.32914            0   -881.46942    3722.7322     13.45396    13.353653    13.253679    2.0960764    2635.9956    1079.2907 
 1520000    855.11956    -894.5009            0   -880.35269    3517.0786     13.45396    13.353653    13.253679    2.4463084    2637.8552    1077.4338 
 1521000    708.20485    -894.0352            0   -882.31774    5654.1451     13.45396    13.353653    13.253679    2.3255296    2639.7158    1075.5774 
 1522000    781.78852   -895.24623            0    -882.3113     5551.438     13.45396    13.353653    13.253679    2.1778577    2641.5701    1073.7184 
 1523000    767.17116   -893.12028            0   -880.42721    5913.5095     13.45396    13.353653    13.253679    2.2246118    2643.4255    1071.8598 
 1524000    761.95276   -894.41326            0   -881.80653    3289.2065     13.45396    13.353653    13.253679    3.2185279    2645.2943    1070.0067 
 1525000    738.16095   -895.24223            0   -883.02914    4073.0513     13.45396    13.353653    13.253679    2.1776133    2647.1473    1068.1472 
 1526000    855.98754   -894.22526            0   -880.06269    8150.9904     13.45396    13.353653    13.253679    3.0145241    2649.0038    1066.2891 
 1527000     772.0699   -894.65452            0    -881.8804    8758.8638     13.45396    13.353653    13.253679    2.5190185    2650.8602    1064.4309 
 1528000    753.28468   -895.33665            0   -882.87333    6707.8471     13.45396    13.353653    13.253679    1.8696249    2652.7153    1062.5722 
 1529000    936.48758   -895.07629            0   -879.58183     3655.439     13.45396    13.353653    13.253679    1.8181412     2654.574     1060.715 
 1530000    759.71045    -894.7871            0   -882.21746     5570.166     13.45396    13.353653    13.253679    2.6626412    2656.4307     1058.857 
 1531000    835.33709   -894.72163            0   -880.90072    5502.4988     13.45396    13.353653    13.253679    2.0659487    2658.2856    1056.9983 
 1532000    877.16719    -894.2467            0   -879.73371    6326.6715     13.45396    13.353653    13.253679    2.2457522    2660.1423    1055.1402 
 1533000    780.95755   -894.98163            0   -882.06046    5039.9681     13.45396    13.353653    13.253679    2.5002237    2662.0028    1053.2837 
 1534000    828.72187   -892.32905            0    -878.6176    8012.3579     13.45396    13.353653    13.253679    2.2743385    2663.8655    1051.4281 
 1535000    850.10426    -894.0802            0   -880.01498    7605.1785     13.45396    13.353653    13.253679    2.1704143    2665.7234    1049.5705 
 1536000    764.57881   -894.08797            0   -881.43779    7075.6008     13.45396    13.353653    13.253679    2.4503699    2667.5822    1047.7133 
 1537000    847.24475   -893.01695            0   -878.99903      9556.48     13.45396    13.353653    13.253679    2.7881544    2669.4454    1045.8579 
 1538000     869.2233   -894.31563            0   -879.93407    8798.3371     13.45396    13.353653    13.253679    2.1681231    2671.3037    1044.0005 
 1539000    711.68153   -893.27643            0   -881.50145    4206.3735     13.45396    13.353653    13.253679    1.9007533    2673.1627    1042.1433 
 1540000    868.53768   -893.98472            0    -879.6145    7478.5894     13.45396    13.353653    13.253679    1.8291453    2675.0201    1040.2856 
 1541000    876.17231   -894.24397            0   -879.74744     8468.969     13.45396    13.353653    13.253679    2.4209952    2676.8807    1038.4291 
 1542000      790.285   -894.61718            0   -881.54168    5901.1283     13.45396    13.353653    13.253679    2.9775637     2678.735    1036.5701 
 1543000    824.00559   -893.39704            0   -879.76362    8967.8427     13.45396    13.353653    13.253679    2.4404993    2680.5899    1034.7114 
 1544000     964.6557   -894.85998            0   -878.89946    5762.6722     13.45396    13.353653    13.253679    2.3613425    2682.4466    1032.8534 
 1545000    805.62572   -895.43478            0   -882.10546    3652.7209     13.45396    13.353653    13.253679    1.8465718    2684.3051    1030.9961 
 1546000    819.69559   -893.28288            0   -879.72077    11173.932     13.45396    13.353653    13.253679    2.5529881     2686.168    1029.1405 
 1547000     799.7191   -893.85902            0   -880.62743    6086.7075     13.45396    13.353653    13.253679    2.8021036    2688.0249    1027.2825 
 1548000     712.0286   -893.73489            0   -881.95417     6214.751     13.45396    13.353653    13.253679    2.4518706    2689.8856     1025.426 
 1549000    820.28669   -893.02893            0   -879.45705    5771.8135     13.45396    13.353653    13.253679    2.2744581    2691.7437    1023.5685 
 1550000    811.21368   -896.37433            0   -882.95256    2445.8578     13.45396    13.353653    13.253679    2.0284403     2693.601    1021.7107 
 1551000    774.64803   -894.35463            0   -881.53785    5513.4882     13.45396    13.353653    13.253679    2.6468362     2695.463    1019.8547 
 1552000    818.82568   -893.96444            0   -880.41672    6603.5287     13.45396    13.353653    13.253679     2.274374    2697.3222    1017.9976 
 1553000    762.63743     -895.763            0   -883.14494    3879.2498     13.45396    13.353653    13.253679    2.8348424    2699.1821    1016.1408 
 1554000    699.81939   -894.26241            0   -882.68369    1695.5022     13.45396    13.353653    13.253679    2.0184374    2701.0396    1014.2831 
 1555000    794.32484    -893.4349            0   -880.29256    7048.4179     13.45396    13.353653    13.253679    2.2434146    2702.8955    1012.4248 
 1556000    775.16532   -894.24074            0    -881.4154    2317.0593     13.45396    13.353653    13.253679     2.721913    2704.8064     1010.587 
 1557000    725.84844   -894.81041            0   -882.80103    4750.0721     13.45396    13.353653    13.253679    2.7083572    2706.6885    1008.7384 
 1558000     829.5099   -894.25544            0   -880.53095    4396.0346     13.45396    13.353653    13.253679    2.5669093    2708.5456    1006.8805 
 1559000    670.41376     -892.394            0    -881.3018    7249.5205     13.45396    13.353653    13.253679     2.103206    2710.4016    1005.0221 
 1560000    720.45989   -895.32394            0   -883.40372    4610.7089     13.45396    13.353653    13.253679    2.6105553     2712.262    1003.1654 
 1561000    871.92195   -894.41246            0   -879.98625    5635.0011     13.45396    13.353653    13.253679    2.1573268    2714.1232     1001.309 
 1562000    739.70298   -893.45318            0   -881.21457    3584.7166     13.45396    13.353653    13.253679    2.9399355    2715.9818    999.45158 
 1563000    697.03866   -894.79597            0   -883.26325    3389.9759     13.45396    13.353653    13.253679    2.4562218    2717.8457    997.59614 
 1564000    861.81268    -893.7959            0   -879.53695    5327.2552     13.45396    13.353653    13.253679    1.8641892     2719.701    995.73751 
 1565000    737.48606   -893.55414            0   -881.35221     5527.196     13.45396    13.353653    13.253679    3.1421473    2721.5578    993.87946 
 1566000    786.43114    -895.0353            0   -882.02356    3913.3598     13.45396    13.353653    13.253679    1.9866512    2723.4207    992.02364 
 1567000    908.13056    -893.5366            0   -878.51131    7567.2607     13.45396    13.353653    13.253679    2.3065618     2725.281    990.16686 
 1568000    821.32217   -895.07119            0   -881.48217    4509.1648     13.45396    13.353653    13.253679    2.9740243    2727.1364    988.30829 
 1569000    807.58257   -894.39074            0   -881.02904    5228.2418     13.45396    13.353653    13.253679    2.0374949    2728.9959     986.4512 
 1570000    915.15865    -893.8507            0   -878.70912    2530.1752     13.45396    13.353653    13.253679    1.9601277    2730.8538    984.59355 
 1571000    707.79991    -892.7423            0   -881.03154    6466.2051     13.45396    13.353653    13.253679    2.5669827    2732.7191    982.73854 
 1572000    802.13817   -894.21881            0    -880.9472    4800.9772     13.45396    13.353653    13.253679     2.254787    2734.5819    980.88265 
 1573000    864.32121   -892.44713            0   -878.14668    6659.5498     13.45396    13.353653    13.253679    2.0332017    2736.4373    979.02406 
 1574000    808.80485   -894.59837            0   -881.21646    6791.0362     13.45396    13.353653    13.253679    2.0815532    2738.3116    977.17224 
 1575000    839.01405   -894.76581            0   -880.88407    4021.6242     13.45396    13.353653    13.253679    1.8172099    2740.1687    975.31427 
 1576000    938.26693   -893.71459            0   -878.19069     7531.746     13.45396    13.353653    13.253679    1.8724017    2742.0338    973.45914 
 1577000    746.22892    -894.0775            0   -881.73092     6146.976     13.45396    13.353653    13.253679    2.7868358     2743.898    971.60369 
 1578000    872.83161   -895.05132            0   -880.61006    3553.6566     13.45396    13.353653    13.253679    2.0652591    2745.7533    969.74508 
 1579000    881.86676   -892.27703            0   -877.68628    9079.4993     13.45396    13.353653    13.253679    2.3433822    2747.6108    967.88723 
 1580000    770.94231   -894.43315            0   -881.67768    4357.5426     13.45396    13.353653    13.253679    2.5836456    2749.4802     966.0336 
 1581000    819.07696   -894.72054            0   -881.16867    7186.4965     13.45396    13.353653    13.253679    3.4158884    2751.3368    964.17541 
 1582000    872.65111   -893.26115            0   -878.82288    8641.2324     13.45396    13.353653    13.253679    2.7057275    2753.1953    962.31794 
 1583000    764.48102   -895.29692            0   -882.64835    4195.8891     13.45396    13.353653    13.253679    3.0748027    2755.0526       960.46 
 1584000    849.48389   -894.29948            0   -880.24451     6149.914     13.45396    13.353653    13.253679    2.2142479    2756.9106    958.60232 
 1585000    737.55915    -893.0539            0   -880.85077    548.13401     13.45396    13.353653    13.253679    1.9651244    2758.7675    956.74428 
 1586000    725.25717   -894.81971            0   -882.82011    4119.2934     13.45396    13.353653    13.253679    2.0096343    2760.6314    954.88865 
 1587000    841.03962   -894.06642            0   -880.15116    6184.6003     13.45396    13.353653    13.253679    2.6708672    2762.4905    953.03134 
 1588000    740.26648   -893.46605            0   -881.21812    7083.0555     13.45396    13.353653    13.253679    2.7332814    2764.3804    951.18466 
 1589000      705.915   -895.05909            0   -883.37952    2483.4492     13.45396    13.353653    13.253679    2.1223584    2766.2443    949.32897 
 1590000    842.04246   -894.82234            0    -880.8905    7051.6287     13.45396    13.353653    13.253679    2.1313379     2768.103    947.47151 
 1591000    784.15103   -893.76092            0   -880.78691    7501.2681     13.45396    13.353653    13.253679    3.0982119    2769.9603    945.61355 
 1592000    813.28174   -896.73251            0   -883.27652    4202.5601     13.45396    13.353653    13.253679     1.865956    2771.8195    943.75625 
 1593000       914.68   -895.26372            0   -880.13006    2532.1213     13.45396    13.353653    13.253679    1.6485457    2773.6792     941.8991 
 1594000    769.71291   -893.60302            0   -880.86789    7732.0016     13.45396    13.353653    13.253679    2.6939486    2775.5358    940.04089 
 1595000    644.51441    -894.4207            0   -883.75701     4649.934     13.45396    13.353653    13.253679    2.5993348    2777.3935    938.18307 
 1596000    861.73486     -894.332            0   -880.07434    8247.8127     13.45396    13.353653    13.253679    2.1383628    2779.2519    936.32551 
 1597000    743.75406    -893.3179            0   -881.01227    4184.4828     13.45396    13.353653    13.253679    2.3450442     2781.111    934.46816 
 1598000    805.51344   -895.92236            0    -882.5949    2707.5029     13.45396    13.353653    13.253679    1.8023076    2783.0066    932.62303 
 1599000    902.89512   -894.00645            0   -879.06778     7671.299     13.45396    13.353653    13.253679    2.2672055    2784.8791    930.77015 
 1600000    767.79921   -894.34834            0   -881.64488    7128.9246     13.45396    13.353653    13.253679    2.3314279    2786.7426    928.91421 
 1601000    795.32441    -894.6987            0   -881.53982    1905.0547     13.45396    13.353653    13.253679    2.3844103    2788.6197    927.06278 
 1602000    790.45393   -893.85225            0   -880.77395    6201.7602     13.45396    13.353653    13.253679    2.4436503    2790.4893    925.20885 
 1603000     812.5975   -893.05139            0   -879.60672    8347.7133     13.45396    13.353653    13.253679    2.5436776    2792.3445     923.3501 
 1604000     802.9045   -894.23749            0   -880.95319    3112.7569     13.45396    13.353653    13.253679    3.1351229    2794.2137    921.49601 
 1605000    700.73631   -893.75865            0   -882.16475    6020.9347     13.45396    13.353653    13.253679    2.9258933     2796.088    919.64358 
 1606000    879.78891   -893.44693            0   -878.89056    4856.6931     13.45396    13.353653    13.253679    2.0191319    2797.9807    917.79712 
 1607000    734.94544   -893.35325            0   -881.19336    3382.0903     13.45396    13.353653    13.253679    3.1081995    2799.8875    915.95524 
 1608000    822.00258   -895.31743            0   -881.71715    5254.5664     13.45396    13.353653    13.253679    2.1825374    2801.7931    914.11288 
 1609000    910.21894   -893.53631            0   -878.47647    4143.5622     13.45396    13.353653    13.253679    2.4493984    2803.6991    912.27054 
 1610000    656.75411    -892.4431            0   -881.57691    3609.3328     13.45396    13.353653    13.253679    2.1167551    2805.6033    910.42757 
 1611000    777.50196   -893.99416            0   -881.13016    5137.4403     13.45396    13.353653    13.253679    2.1729811    2807.5059    908.58397 
 1612000    890.29143   -891.97864            0    -877.2485    7234.6538     13.45396    13.353653    13.253679    2.3970245    2809.4133    906.74187 
 1613000    811.69839   -893.68566            0   -880.25586    4654.8789     13.45396    13.353653    13.253679    2.1167283    2811.3149    904.89778 
 1614000    743.78522   -893.96127            0   -881.65512    4360.4557     13.45396    13.353653    13.253679    2.1987702      2813.19    903.04514 
 1615000    854.64283   -894.45312            0    -880.3128    5754.0536     13.45396    13.353653    13.253679    2.4362085    2815.0643     901.1922 
 1616000    827.67027   -893.04977            0   -879.35572    5427.0027     13.45396    13.353653    13.253679     2.315528    2816.9234     899.3344 
 1617000    715.56269   -893.78416            0   -881.94496     5533.368     13.45396    13.353653    13.253679    1.9419926    2818.7812    897.47614 
 1618000     839.0193   -893.83467            0   -879.95284    6233.4759     13.45396    13.353653    13.253679    2.6182275    2820.6852     895.6326 
 1619000    785.60863   -892.92911            0   -879.93099    6046.5483     13.45396    13.353653    13.253679    2.3985025     2822.593    893.79015 
 1620000    735.70443   -894.84967            0   -882.67722    4721.6834     13.45396    13.353653    13.253679    2.5201597    2824.4573    891.93389 
 1621000    829.07836   -893.38154            0   -879.66419    5556.4722     13.45396    13.353653    13.253679    2.0908293    2826.3259    890.07897 
 1622000    753.20461   -893.09773            0   -880.63573    6655.1799     13.45396    13.353653    13.253679    2.4880094    2828.1927    888.22347 
 1623000    733.83982    -893.6201            0    -881.4785    5296.7254     13.45396    13.353653    13.253679    2.0730075    2830.0627    886.36895 
 1624000    934.19599   -893.61761            0   -878.16106     9140.779     13.45396    13.353653    13.253679    2.9359352    2831.9299    884.51353 
 1625000    755.95695    -893.4126            0   -880.90506    6252.8201     13.45396    13.353653    13.253679    1.9708002       2833.8    882.65903 
 1626000    852.90894   -895.76824            0    -881.6566    3120.9311     13.45396    13.353653    13.253679    2.4503803    2835.6628     880.8022 
 1627000     877.8313   -892.74721            0   -878.22323    7530.0715     13.45396    13.353653    13.253679    2.3332125    2837.5309    878.94702 
 1628000    816.11705   -894.40991            0   -880.90701    8117.3468     13.45396    13.353653    13.253679    2.6307956    2839.3989     877.0918 
 1629000    773.15279   -893.85958            0   -881.06754    5192.5494     13.45396    13.353653    13.253679    1.8257529    2841.2581    875.23387 
 1630000    844.56431    -893.0939            0   -879.12033    4922.5653     13.45396    13.353653    13.253679      2.32153     2843.118    873.37611 
 1631000    819.30922   -893.29091            0   -879.73519    9081.1496     13.45396    13.353653    13.253679    2.5191658    2844.9766    871.51797 
 1632000    770.92384   -894.48441            0   -881.72925    5304.1759     13.45396    13.353653    13.253679    2.1446252    2846.8344    869.65959 
 1633000    878.50052   -893.64087            0   -879.10582     7284.566     13.45396    13.353653    13.253679    2.4081101    2848.6933    867.80156 
 1634000    830.80465   -894.20793            0   -880.46202    9119.0865     13.45396    13.353653    13.253679    2.0374369    2850.5546    865.94421 
 1635000    727.47846   -894.00706            0   -881.97072    6521.9994     13.45396    13.353653    13.253679    2.2826057    2852.4076    864.08438 
 1636000    768.42236   -891.80331            0   -879.08953    5424.4487     13.45396    13.353653    13.253679    2.0895686    2854.2712    862.22775 
 1637000    755.64721   -895.09437            0   -882.59197    5914.7047     13.45396    13.353653    13.253679    1.9849631    2856.1395    860.37252 
 1638000    750.72933   -893.79853            0   -881.37749    4284.3089     13.45396    13.353653    13.253679    2.7007964    2858.0067    858.51696 
 1639000     851.9283   -893.61144            0   -879.51603     3859.853     13.45396    13.353653    13.253679    2.1256552    2859.8763    856.66211 
 1640000    736.54796   -895.46426            0   -883.27786    1867.1672     13.45396    13.353653    13.253679    2.1037981    2861.7395    854.80532 
 1641000    798.45921   -894.36967            0   -881.15892    7037.1921     13.45396    13.353653    13.253679    2.5710728    2863.6088    852.95032 
 1642000    848.06866   -894.20191            0   -880.17037    4277.8431     13.45396    13.353653    13.253679    2.5930295    2865.4748    851.09432 
 1643000    694.87258   -895.16933            0   -883.67246    6188.2547     13.45396    13.353653    13.253679    2.6509176    2867.3447    849.23947 
 1644000    787.38343   -894.66642            0   -881.63893    4399.2018     13.45396    13.353653    13.253679    1.9409436     2869.214    847.38444 
 1645000    793.16519   -893.54554            0   -880.42238    9136.0138     13.45396    13.353653    13.253679    1.7623148     2871.084     845.5296 
 1646000    763.18141   -895.14857            0   -882.52151    4349.2817     13.45396    13.353653    13.253679    2.3752145    2872.9529    843.67439 
 1647000    722.53857   -894.12441            0    -882.1698    5707.4728     13.45396    13.353653    13.253679    2.8005001    2874.8183    841.81815 
 1648000    802.69302   -893.63305            0   -880.35225    7358.8417     13.45396    13.353653    13.253679     2.552764    2876.6831    839.96173 
 1649000    751.65817   -894.60977            0   -882.17336    6737.8854     13.45396    13.353653    13.253679     2.131187    2878.5488    838.10557 
 1650000    687.12414   -895.23709            0   -883.86842    1290.2711     13.45396    13.353653    13.253679    2.0700673     2880.414    836.24922 
 1651000    843.42348   -894.22537            0   -880.27068    6275.0719     13.45396    13.353653    13.253679    1.9631917    2882.3317    834.40808 
 1652000    784.71025     -894.882            0   -881.89873    5339.4015     13.45396    13.353653    13.253679    1.9240168    2884.1929    832.55052 
 1653000    713.54007   -894.44704            0   -882.64131    6100.1028     13.45396    13.353653    13.253679    2.3261366    2886.0576    830.69398 
 1654000    824.76211   -893.30319            0   -879.65725    8134.9186     13.45396    13.353653    13.253679    3.2212506    2887.9136    828.83493 
 1655000    740.61572   -894.62992            0   -882.37621    6979.4854     13.45396    13.353653    13.253679    2.1952713    2889.7724    826.97668 
 1656000    869.52272   -894.38835            0   -880.00184    7994.0752     13.45396    13.353653    13.253679      2.50113     2891.632    825.11864 
 1657000    777.45013   -893.09121            0   -880.22806    5534.7202     13.45396    13.353653    13.253679    2.5556644    2893.4937    823.26122 
 1658000    829.75281   -895.83464            0   -882.10614    4273.3155     13.45396    13.353653    13.253679    2.3148582    2895.3544     821.4035 
 1659000    869.46065   -892.75737            0   -878.37188    5786.5645     13.45396    13.353653    13.253679    3.0772676    2897.2113    819.54469 
 1660000    860.21988   -894.37816            0   -880.14556    6326.3438     13.45396    13.353653    13.253679    2.0490555    2899.0747    817.68773 
 1661000    777.39177   -894.40761            0   -881.54543    5241.5206     13.45396    13.353653    13.253679    2.5158897    2900.9304     815.8286 
 1662000    905.82352   -893.41325            0   -878.42613     7547.599     13.45396    13.353653    13.253679    2.7570086    2902.7857    813.96937 
 1663000    747.21803   -892.62919            0   -880.26625    5643.9971     13.45396    13.353653    13.253679    2.2698129    2904.6411    812.11015 
 1664000     740.8692    -893.4547            0    -881.1968    6364.9345     13.45396    13.353653    13.253679    2.3003992     2906.497    810.25108 
 1665000    901.79281   -893.74639            0   -878.82596    5965.0865     13.45396    13.353653    13.253679    1.7431532    2908.3526    808.39193 
 1666000     862.4634   -894.34245            0   -880.07273    6922.1886     13.45396    13.353653    13.253679    3.1492713    2910.2135    806.53425 
 1667000    778.51973    -894.1353            0   -881.25446    8845.2717     13.45396    13.353653    13.253679    2.5302192    2912.0698    804.67531 
 1668000    806.58045   -892.54959            0   -879.20448    8716.3473     13.45396    13.353653    13.253679     1.745741    2913.9281    802.81693 
 1669000    938.39744   -894.77542            0   -879.24935    7052.3215     13.45396    13.353653    13.253679    2.4858001    2915.7864    800.95853 
 1670000    787.19111   -894.78417            0   -881.75985    4495.3709     13.45396    13.353653    13.253679     1.890696    2917.6408    799.09906 
 1671000    870.02984   -893.63712            0   -879.24222    9682.4048     13.45396    13.353653    13.253679    2.4026382    2919.4962     797.2399 
 1672000    834.31993   -894.86947            0   -881.06539    5287.5189     13.45396    13.353653    13.253679    2.5682813    2921.3537     795.3813 
 1673000    769.33302   -894.68923            0   -881.96039     5633.948     13.45396    13.353653    13.253679    1.8770052    2923.2116     793.5228 
 1674000    806.26822   -892.60636            0   -879.26641    5017.3144     13.45396    13.353653    13.253679     2.847395     2925.074    791.66551 
 1675000    662.29769   -893.90741            0    -882.9495    3710.8661     13.45396    13.353653    13.253679     2.637361    2926.9334    789.80742 
 1676000    836.83166   -894.88548            0   -881.03985    5936.7637     13.45396    13.353653    13.253679    2.2000495    2928.7892    787.94837 
 1677000    779.07187   -892.95349            0   -880.06352    5556.1314     13.45396    13.353653    13.253679    2.7582389     2930.645    786.08931 
 1678000    766.79781   -896.35255            0   -883.66565    9381.9049     13.45396    13.353653    13.253679    1.9243712    2932.5011    784.23034 
 1679000    766.97722   -894.02693            0   -881.33706    4593.7065     13.45396    13.353653    13.253679    2.0616807    2934.3579    782.37155 
 1680000    833.93641   -894.20305            0   -880.40532    8431.8385     13.45396    13.353653    13.253679    2.1808951    2936.2194    780.51403 
 1681000     771.2349   -895.98696            0   -883.22665    4662.0971     13.45396    13.353653    13.253679    1.8475334    2938.0769    778.65542 
 1682000     776.0249   -894.11187            0    -881.2723    4639.0941     13.45396    13.353653    13.253679     2.750259    2939.9359    776.79722 
 1683000    812.01863   -893.93031            0   -880.49522    7320.6261     13.45396    13.353653    13.253679    2.6300966    2941.7944    774.93889 
 1684000     659.9546   -893.09789            0   -882.17875     3549.374     13.45396    13.353653    13.253679    2.4787576    2943.6579    773.08187 
 1685000    768.58524   -894.79866            0   -882.08219    5082.3401     13.45396    13.353653    13.253679    2.3366338    2945.5125    771.22252 
 1686000     908.3059   -894.98021            0   -879.95202    6376.2571     13.45396    13.353653    13.253679     2.057664    2947.3691    769.36369 
 1687000    772.41503   -895.44284            0     -882.663    5908.3169     13.45396    13.353653    13.253679    2.4519993    2949.2251    767.50471 
 1688000    782.63391   -895.64982            0   -882.70091    231.36762     13.45396    13.353653    13.253679    2.6021459    2951.0821    765.64598 
 1689000    847.50836   -893.53886            0   -879.51658    8454.2682     13.45396    13.353653    13.253679    3.3377871    2952.9488    763.78977 
 1690000     772.4818    -894.7989            0   -882.01796    3095.6212     13.45396    13.353653    13.253679    2.3445838    2954.8062    761.93116 
 1691000    745.92771   -893.54609            0   -881.20449    7956.8373     13.45396    13.353653    13.253679    2.5847037    2956.6615    760.07201 
 1692000    820.83606   -893.17736            0   -879.59638    9538.0766     13.45396    13.353653    13.253679    2.9691908    2958.5244    758.21481 
 1693000    742.46857   -894.32693            0   -882.04256    6099.0118     13.45396    13.353653    13.253679    2.1653087    2960.3831    756.35652 
 1694000    918.35305   -894.16364            0   -878.96921    5362.7015     13.45396    13.353653    13.253679    2.4130149    2962.2427    754.49846 
 1695000    781.03776   -892.38453            0   -879.46203    7629.1832     13.45396    13.353653    13.253679    2.2937026    2964.1151    752.64364 
 1696000    714.51446   -893.14355            0   -881.32169    6324.7607     13.45396    13.353653    13.253679    2.2016219    2965.9829    750.78764 
 1697000    837.28006   -893.02416            0   -879.17111    4257.6075     13.45396    13.353653    13.253679     2.788758    2967.9011    748.94437 
 1698000    816.67975   -892.95274            0   -879.44053    3005.7492     13.45396    13.353653    13.253679    2.5669029     2969.761     747.0863 
 1699000    748.71317    -893.5396            0   -881.15192    6493.3999     13.45396    13.353653    13.253679    2.7714292    2971.6193    745.22787 
 1700000    810.04273   -892.49878            0   -879.09638    7105.9175     13.45396    13.353653    13.253679    2.4541522    2973.4767    743.36916 
 1701000    814.66843   -892.76891            0   -879.28998     7875.309     13.45396    13.353653    13.253679    2.8903967    2975.3346    741.51062 
 1702000    748.23932   -893.38698            0   -881.00713     6144.531     13.45396    13.353653    13.253679    2.4379626    2977.1976    739.65334 
 1703000    690.78138   -891.75608            0    -880.3269    6531.7993     13.45396    13.353653    13.253679    3.6215979    2979.0574    737.79524 
 1704000    807.41154   -892.50312            0   -879.14426    8029.8081     13.45396    13.353653    13.253679    2.6948876    2980.9143    735.93646 
 1705000    768.08584   -895.05555            0   -882.34734    3245.1126     13.45396    13.353653    13.253679    2.0234581    2982.7804    734.07992 
 1706000    846.96229   -894.58058            0   -880.56734    6378.0243     13.45396    13.353653    13.253679    3.7373208    2984.6436    732.22265 
 1707000    845.61926   -893.57306            0   -879.58204    7018.8181     13.45396    13.353653    13.253679    3.0363078    2986.5009    730.36394 
 1708000    749.67579   -895.11881            0    -882.7152    1758.4558     13.45396    13.353653    13.253679     1.804249    2988.3572      728.505 
 1709000    883.84142   -894.38638            0   -879.76296    5408.6961     13.45396    13.353653    13.253679    1.8583966    2990.2147    726.64632 
 1710000    814.12248   -895.03415            0   -881.56425    4395.7835     13.45396    13.353653    13.253679    2.1909593    2992.0728    724.78782 
 1711000    802.50928    -895.6552            0   -882.37745    3910.8372     13.45396    13.353653    13.253679    2.2343197     2993.928    722.92861 
 1712000    817.39526   -894.28488            0   -880.76083    6995.6963     13.45396    13.353653    13.253679    1.7730821      2995.79    721.07105 
 1713000    764.60119   -893.43843            0   -880.78788    4997.9121     13.45396    13.353653    13.253679    3.5354211    2997.6584    719.21501 
 1714000    791.37184   -896.54838            0    -883.4549    4675.7884     13.45396    13.353653    13.253679    1.8278494    2999.5279    717.35922 
 1715000    826.95373   -894.53692            0   -880.85472    3806.1855     13.45396    13.353653    13.253679    3.1742285    3001.3904    715.50172 
 1716000    820.33476   -893.65974            0   -880.08706    5629.5383     13.45396    13.353653    13.253679    2.1154566    3003.2484    713.64318 
 1717000    714.86995   -895.37969            0   -883.55195    3053.3158     13.45396    13.353653    13.253679    2.6410249    3005.1077    711.78493 
 1718000    770.73443   -894.40986            0   -881.65783    3549.2823     13.45396    13.353653    13.253679    1.7891357    3006.9623    709.92558 
 1719000     795.9923   -893.59746            0   -880.42753    3171.4993     13.45396    13.353653    13.253679    2.1415798    3008.8241    708.06793 
 1720000    790.63398   -894.10491            0   -881.02364    5334.5897     13.45396    13.353653    13.253679    2.0158375    3010.6795    706.20878 
 1721000    742.80248   -894.73713            0   -882.44725    4240.0106     13.45396    13.353653    13.253679    2.3025297    3012.5348     704.3496 
 1722000    843.03357   -893.09505            0   -879.14681    3983.9615     13.45396    13.353653    13.253679    2.7521211    3014.3939    702.49131 
 1723000    820.99991   -894.44365            0   -880.85996    4703.1085     13.45396    13.353653    13.253679    1.9085454    3016.2533    700.63307 
 1724000    831.96573   -895.01787            0   -881.25275    4336.3256     13.45396    13.353653    13.253679    2.3831449    3018.1126    698.77483 
 1725000    741.04075   -892.70398            0   -880.44324    6457.9594     13.45396    13.353653    13.253679    2.5721235    3019.9755    696.91742 
 1726000    900.67655   -892.99387            0   -878.09191    7455.2536     13.45396    13.353653    13.253679    3.1127247    3021.8325    695.05864 
 1727000     778.8171   -894.37689            0   -881.49113    5140.9634     13.45396    13.353653    13.253679    2.3139024    3023.6893    693.19981 
 1728000    786.68833   -894.16002            0   -881.14403    3610.4302     13.45396    13.353653    13.253679    2.2838633    3025.5478    691.34139 
 1729000    850.96424   -892.07258            0   -877.99312    7177.9183     13.45396    13.353653    13.253679    2.8707504    3027.4058    689.48284 
 1730000    786.76287   -894.16088            0   -881.14365     9156.054     13.45396    13.353653    13.253679    3.1514004    3029.2665    687.62491 
 1731000    744.97948   -893.54893            0   -881.22302    5683.8178     13.45396    13.353653    13.253679    2.0775053    3031.1238    685.76622 
 1732000    870.94428   -893.25962            0   -878.84959    8577.9091     13.45396    13.353653    13.253679    2.2727928    3032.9806    683.90739 
 1733000    832.86246   -894.98951            0   -881.20955    7399.5714     13.45396    13.353653    13.253679    2.6598063    3034.8389    682.04892 
 1734000    792.23506    -894.3879            0   -881.28013    5621.9664     13.45396    13.353653    13.253679    2.7287097    3036.6987    680.19078 
 1735000     854.3493   -893.17586            0    -879.0404    6635.5097     13.45396    13.353653    13.253679     2.833426    3038.5681    678.33477 
 1736000    770.72593   -895.77407            0   -883.02218    4647.8944     13.45396    13.353653    13.253679    2.6887633    3040.4282    676.47669 
 1737000    851.31863   -894.45148            0   -880.36616    5843.1524     13.45396    13.353653    13.253679    2.3524863    3042.2853    674.61793 
 1738000     807.9738   -893.35299            0   -879.98483    8966.9556     13.45396    13.353653    13.253679    2.8809596    3044.1435    672.75943 
 1739000    732.01972   -895.19623            0   -883.08474     1377.161     13.45396    13.353653    13.253679    1.9504865    3046.0013    670.90083 
 1740000    771.52577   -893.73963            0   -880.97451    4313.8035     13.45396    13.353653    13.253679    1.7106841    3047.8615    669.04277 
 1741000    765.04769   -893.28706            0   -880.62912    7355.1255     13.45396    13.353653    13.253679    2.5281531    3049.7196    667.18425 
 1742000    692.78324   -895.02052            0   -883.55821    5342.9439     13.45396    13.353653    13.253679    2.3468196    3051.5783    665.32584 
 1743000    867.41988    -895.2399            0   -880.88818    6905.6944     13.45396    13.353653    13.253679    2.9457899    3053.4342    663.46683 
 1744000    768.14282   -893.17123            0   -880.46208    8019.5711     13.45396    13.353653    13.253679    2.1573459    3055.2995    661.60987 
 1745000    664.88894   -894.61708            0    -883.6163     3714.052     13.45396    13.353653    13.253679    2.0658681    3057.1842    659.75707 
 1746000    760.83985   -893.58773            0   -880.99941    8751.2741     13.45396    13.353653    13.253679    2.9216861    3059.1004    657.91103 
 1747000    855.65782    -894.5279            0   -880.37078       5369.7     13.45396    13.353653    13.253679    2.7703087    3060.9995    656.06122 
 1748000    768.46808   -894.61072            0   -881.89618    5278.0714     13.45396    13.353653    13.253679    1.7134972    3062.8588    654.20286 
 1749000    783.12099   -895.41124            0   -882.45427     6445.609     13.45396    13.353653    13.253679    2.3314691    3064.7217    652.34526 
 1750000    856.11432   -893.68531            0   -879.52064     8475.057     13.45396    13.353653    13.253679    3.4513292    3066.5918    650.48916 
 1751000    736.05574   -894.37202            0   -882.19376      6034.42     13.45396    13.353653    13.253679    2.9508999    3068.4582     648.6323 
 1752000    880.95733   -895.03534            0   -880.45964    7666.7282     13.45396    13.353653    13.253679    3.0800084    3070.3259    646.77567 
 1753000    871.01934   -894.31847            0   -879.90719    5445.1287     13.45396    13.353653    13.253679    2.3116629    3072.1957    644.91948 
 1754000    705.93128   -893.96113            0   -882.28129    7294.6175     13.45396    13.353653    13.253679    2.6333525    3074.0649    643.06316 
 1755000     806.8729   -892.25067            0   -878.90072    6719.1099     13.45396    13.353653    13.253679     1.911796    3075.9324    641.20645 
 1756000    810.94464   -893.51613            0   -880.09881    9821.3886     13.45396    13.353653    13.253679     2.520808    3077.8018    639.35012 
 1757000    772.21829    -894.3259            0   -881.54931    2843.6892     13.45396    13.353653    13.253679    2.0749874    3079.6609    637.49166 
 1758000    874.37019   -893.47961            0    -879.0129    4583.2397     13.45396    13.353653    13.253679      2.47354    3081.5178    635.63274 
 1759000    808.01339   -893.23293            0   -879.86411    5586.7814     13.45396    13.353653    13.253679    2.2157767    3083.3793    633.77476 
 1760000    730.27144   -893.43331            0   -881.35075     5588.155     13.45396    13.353653    13.253679    2.4093876    3085.2372    631.91605 
 1761000    808.12529   -893.15244            0   -879.78177     7899.814     13.45396    13.353653    13.253679    2.9902101    3087.0913    630.05656 
 1762000    923.64246   -894.65837            0   -879.37643    5146.5155     13.45396    13.353653    13.253679     2.280887    3088.9489     628.1978 
 1763000     630.9818   -891.98619            0   -881.54641    4561.8983     13.45396    13.353653    13.253679    2.6544138    3090.8078    626.33929 
 1764000    825.33583   -893.00028            0   -879.34485    8769.3079     13.45396    13.353653    13.253679    2.4240781    3092.6642    624.48026 
 1765000    759.40035   -893.24576            0   -880.68126    5077.1638     13.45396    13.353653    13.253679    3.1090788    3094.5255    622.62225 
 1766000    753.88405   -894.77406            0   -882.30082    7729.9339     13.45396    13.353653    13.253679    2.2166447    3096.3812    620.76309 
 1767000     869.0478   -893.57465            0     -879.196     7739.527     13.45396    13.353653    13.253679    2.1842307    3098.2462    618.90581 
 1768000    815.67377   -894.19496            0    -880.6994    4668.7866     13.45396    13.353653    13.253679    2.0010913    3100.1035    617.04697 
 1769000     780.3984   -894.64376            0   -881.73184    4065.5725     13.45396    13.353653    13.253679    2.0372637      3101.96    615.18799 
 1770000    882.85859   -894.15891            0   -879.55175    8994.2867     13.45396    13.353653    13.253679    2.3810628    3103.8184    613.32938 
 1771000    839.78124   -894.63179            0   -880.73736    4789.7785     13.45396    13.353653    13.253679    2.0643756    3105.6779    611.47099 
 1772000    828.81364   -895.63747            0   -881.92451    3337.1894     13.45396    13.353653    13.253679    1.7670682    3107.5408    609.61326 
 1773000    806.15303   -893.65945            0   -880.32141    8952.8613     13.45396    13.353653    13.253679    2.7175532    3109.3978    607.75439 
 1774000    811.30144   -893.22027            0   -879.79705    5303.2313     13.45396    13.353653    13.253679    2.6084304    3111.2535    605.89525 
 1775000    713.58616    -893.8711            0   -882.06461    6224.5786     13.45396    13.353653    13.253679    3.1113779    3113.1091     604.0361 
 1776000    774.56163   -893.91796            0   -881.10261    4204.1248     13.45396    13.353653    13.253679     2.582125    3114.9684    602.17766 
 1777000    826.85594   -893.03212            0   -879.35154    7641.3523     13.45396    13.353653    13.253679    2.6322895     3116.826     600.3189 
 1778000    757.94217   -893.68945            0   -881.14907    8335.9131     13.45396    13.353653    13.253679    2.3369445    3118.6848    598.46037 
 1779000    783.94894   -894.07118            0   -881.10051    6815.4879     13.45396    13.353653    13.253679    2.9383852      3120.54    596.60116 
 1780000    939.80279   -893.52394            0   -877.97462    6100.1266     13.45396    13.353653    13.253679    2.9937863    3122.4006    594.74298 
 1781000    788.46139   -894.34391            0   -881.29858    3647.5459     13.45396    13.353653    13.253679    2.5070668    3124.2614    592.88483 
 1782000    785.25733   -894.01882            0   -881.02651    8704.0246     13.45396    13.353653    13.253679    3.2237892    3126.1189    591.02604 
 1783000    869.68203   -893.05027            0   -878.66112    9108.5144     13.45396    13.353653    13.253679    2.3474354    3127.9746    589.16693 
 1784000     721.7649     -893.475            0   -881.53319    7456.8401     13.45396    13.353653    13.253679    2.3448594    3129.8396    587.30956 
 1785000    752.81305   -893.92425            0   -881.46873    6985.1043     13.45396    13.353653    13.253679    2.5054198    3131.6935    585.45011 
 1786000    837.16048   -892.25712            0   -878.40605    6440.9689     13.45396    13.353653    13.253679    2.2614532    3133.5505    583.59126 
 1787000    779.34096   -894.21328            0   -881.31885    4277.5867     13.45396    13.353653    13.253679    2.2416277    3135.4059     581.7321 
 1788000    848.64535   -896.01327            0   -881.97218    5307.6304     13.45396    13.353653    13.253679    2.2145384    3137.2637    579.87339 
 1789000    796.95364   -892.35933            0    -879.1735    7955.7683     13.45396    13.353653    13.253679    2.3301925    3139.1196    578.01432 
 1790000    775.62773   -895.28633            0   -882.45334    4133.6744     13.45396    13.353653    13.253679    2.2598352    3140.9727    576.15476 
 1791000    755.22953   -894.35509            0   -881.85959    6057.8578     13.45396    13.353653    13.253679    2.4309256    3142.8296    574.29588 
 1792000    816.30701   -893.15472            0   -879.64868    7530.2029     13.45396    13.353653    13.253679    2.2165243    3144.6831     572.4364 
 1793000    704.85188   -894.67346            0   -883.01148    3415.6702     13.45396    13.353653    13.253679    2.1475645    3146.5436     570.5782 
 1794000    769.66683   -894.42035            0   -881.68598    6378.1371     13.45396    13.353653    13.253679    2.1573595    3148.3958    568.71849 
 1795000    778.93348   -893.58711            0   -880.69943    4090.0935     13.45396    13.353653    13.253679    2.2852173    3150.2525     566.8596 
 1796000    784.68691   -894.43363            0   -881.45075      4936.79     13.45396    13.353653    13.253679    2.1961234    3152.1076    565.00042 
 1797000     658.4376    -894.5573            0   -883.66325     5437.926     13.45396    13.353653    13.253679    2.1235805    3153.9629    563.14129 
 1798000    918.10422   -895.74205            0   -880.55174    5083.9102     13.45396    13.353653    13.253679    1.8050654    3155.8179    561.28209 
 1799000    726.09659   -893.12454            0   -881.11105    5930.2758     13.45396    13.353653    13.253679    1.9542554    3157.6719    559.42274 
 1800000    706.52951   -895.28898            0   -883.59924    3381.1526     13.45396    13.353653    13.253679    2.3398835    3159.5265     557.5635 
 1801000    783.98997   -893.57306            0   -880.60171    9470.7129     13.45396    13.353653    13.253679    2.0095757    3161.3823    555.70448 
 1802000    841.85872   -895.13337            0   -881.20457    7192.7644     13.45396    13.353653    13.253679    2.1485128    3163.2385    553.84552 
 1803000    802.77702   -896.50249            0    -883.2203    2681.4568     13.45396    13.353653    13.253679    1.7846157     3165.094    551.98644 
 1804000    842.70855   -894.12653            0   -880.18366    5488.8253     13.45396    13.353653    13.253679     2.167882     3166.947    550.12695 
 1805000    821.77954   -894.42992            0   -880.83333    9438.3516     13.45396    13.353653    13.253679    1.8960943    3168.8043     548.2682 
 1806000    727.73383   -895.03422            0   -882.99364    7459.8451     13.45396    13.353653    13.253679    2.2384359    3170.6586    546.40892 
 1807000     883.7468   -893.73673            0   -879.11488     6172.621     13.45396    13.353653    13.253679    3.0986481    3172.5138    544.54982 
 1808000    744.16694    -894.2424            0   -881.92994    3799.7175     13.45396    13.353653    13.253679    1.7475662    3174.3695     542.6908 
 1809000    830.65657    -894.3894            0   -880.64594    6652.1424     13.45396    13.353653    13.253679    1.7649627    3176.2274    540.83216 
 1810000    908.13139   -894.28856            0   -879.26325    6469.3607     13.45396    13.353653    13.253679    2.4977841     3178.082    538.97297 
 1811000    792.90497   -894.60237            0   -881.48352    8115.4872     13.45396    13.353653    13.253679    2.6247151    3179.9398    537.11431 
 1812000    849.62972   -894.11592            0   -880.05854     6685.052     13.45396    13.353653    13.253679    2.0732439    3181.7989    535.25589 
 1813000    926.01581   -894.10715            0   -878.78594    7885.9451     13.45396    13.353653    13.253679    2.1553331    3183.6598    533.39775 
 1814000     762.2305   -893.78877            0   -881.17744    5803.3823     13.45396    13.353653    13.253679    1.7301755    3185.5114    531.53808 
 1815000    864.31603   -893.98024            0   -879.67988    3945.5922     13.45396    13.353653    13.253679    2.3526033    3187.3748    529.68036 
 1816000    902.92984   -893.93061            0   -878.99137    7413.1704     13.45396    13.353653    13.253679    2.1000822    3189.2305    527.82136 
 1817000    798.92227   -894.71373            0   -881.49532    7315.9752     13.45396    13.353653    13.253679    2.0518719    3191.0848    525.96215 
 1818000    829.64689    -893.8573            0   -880.13055    9206.3558     13.45396    13.353653    13.253679    2.1915576      3192.94    524.10308 
 1819000    799.49168   -891.65873            0    -878.4309     6644.092     13.45396    13.353653    13.253679    1.8165339    3194.7987    522.24457 
 1820000     770.8659    -894.6091            0   -881.85489    3865.9191     13.45396    13.353653    13.253679    2.0394168    3196.6512    520.38507 
 1821000    926.66221   -895.09727            0   -879.76536    8435.4373     13.45396    13.353653    13.253679    2.6811588    3198.5055    518.52588 
 1822000    820.00383   -893.48001            0    -879.9128    6264.2327     13.45396    13.353653    13.253679    2.6891062    3200.3601    516.66672 
 1823000    743.98186   -894.50987            0   -882.20047    6261.1122     13.45396    13.353653    13.253679    2.6737044    3202.2151    514.80764 
 1824000    865.99919   -893.77936            0   -879.45115    8847.8149     13.45396    13.353653    13.253679    3.4837145    3204.0693    512.94844 
 1825000    776.86881   -895.19339            0   -882.33986    2817.9063     13.45396    13.353653    13.253679    2.3703125     3205.922    511.08902 
 1826000    759.06825   -894.77459            0   -882.21558    6718.0698     13.45396    13.353653    13.253679    2.5115096    3207.7739    509.22947 
 1827000    910.77939    -894.8121            0   -879.74298    4201.7433     13.45396    13.353653    13.253679     2.021701     3209.629    507.37042 
 1828000    649.50797   -893.35655            0   -882.61025    2463.3159     13.45396    13.353653    13.253679    3.0212236    3211.4937     505.5129 
 1829000    782.82235   -895.07702            0   -882.12499    5005.0825     13.45396    13.353653    13.253679    2.8329434    3213.3487    503.65384 
 1830000     828.6855   -894.25278            0   -880.54193    5912.8568     13.45396    13.353653    13.253679    2.1338817    3215.2022    501.79457 
 1831000     804.1776   -894.23614            0   -880.93079    6042.8489     13.45396    13.353653    13.253679     2.655256    3217.0577    499.93559 
 1832000    732.49872   -894.81556            0   -882.69615    3266.4005     13.45396    13.353653    13.253679    1.8611447    3218.9118    498.07642 
 1833000     843.3792   -893.60023            0   -879.64627     7913.853     13.45396    13.353653    13.253679    2.7332769    3220.7624    496.21671 
 1834000    754.37432   -893.39584            0   -880.91449    6738.5861     13.45396    13.353653    13.253679    2.6059757    3222.6173    494.35767 
 1835000    722.38228   -895.51736            0   -883.56533    1571.2222     13.45396    13.353653    13.253679     1.618962     3224.475    492.49907 
 1836000    773.60123    -895.1568            0   -882.35733    4979.9362     13.45396    13.353653    13.253679    2.9115903    3226.3328    490.64047 
 1837000    838.08595   -893.96945            0   -880.10307    2684.5875     13.45396    13.353653    13.253679    2.3189468    3228.1857    488.78114 
 1838000    748.79709   -894.11714            0   -881.72807    7319.9017     13.45396    13.353653    13.253679     2.359122    3230.0413    486.92223 
 1839000    702.02649   -893.87086            0   -882.25562     4934.161     13.45396    13.353653    13.253679    1.8208899    3231.8998    485.06374 
 1840000    806.77777    -893.5852            0   -880.23682     4503.678     13.45396    13.353653    13.253679    2.9882345    3233.7546    483.20471 
 1841000    752.72457   -894.21668            0   -881.76263     2670.534     13.45396    13.353653    13.253679    2.1442085    3235.6111    481.34593 
 1842000    735.50576   -895.00402            0   -882.83486    1510.5856     13.45396    13.353653    13.253679    1.7387761    3237.4683    479.48728 
 1843000    850.05224   -893.53714            0   -879.47277    7730.3485     13.45396    13.353653    13.253679    3.1146897    3239.3239    477.62837 
 1844000    852.23259   -895.98014            0   -881.87969    5451.4489     13.45396    13.353653    13.253679    2.7771488    3241.1789    475.76939 
 1845000    752.71365   -894.57959            0   -882.12572    4028.8091     13.45396    13.353653    13.253679    2.1618237    3243.0403    473.91134 
 1846000     807.1195   -893.91346            0   -880.55942    4447.6124     13.45396    13.353653    13.253679    2.0988681    3244.9025    472.05341 
 1847000    763.16759   -893.11794            0    -880.4911    6275.3192     13.45396    13.353653    13.253679    2.8841766    3246.7584    470.19455 
 1848000    781.41954   -895.69807            0   -882.76925    3310.2881     13.45396    13.353653    13.253679    2.8962137    3248.6135    468.33559 
 1849000    921.36155   -894.89167            0   -879.64747    5904.8606     13.45396    13.353653    13.253679    2.2291554    3250.4696    466.47677 
 1850000     776.3758   -893.44849            0   -880.60312    3795.5179     13.45396    13.353653    13.253679    2.5735631    3252.3292    464.61845 
 1851000    772.72445   -894.16782            0   -881.38287    8189.0939     13.45396    13.353653    13.253679    1.9415514    3254.1851    462.75962 
 1852000    819.59362   -894.50538            0   -880.94496     3647.443     13.45396    13.353653    13.253679      1.87203    3256.0413    460.90083 
 1853000    890.57217   -895.16157            0   -880.42679    6292.1092     13.45396    13.353653    13.253679    1.9382004    3257.8948    459.04165 
 1854000     742.6592   -893.44381            0    -881.1563    6805.9825     13.45396    13.353653    13.253679    2.1611835    3259.7503    457.18276 
 1855000    754.13932   -894.99526            0    -882.5178    4211.2675     13.45396    13.353653    13.253679    2.0391871    3261.6041    455.32365 
 1856000     783.8724   -892.20061            0   -879.23121    7127.5643     13.45396    13.353653    13.253679    2.5033949    3263.4596    453.46477 
 1857000    812.53128   -894.78016            0   -881.33658    5674.1768     13.45396    13.353653    13.253679    2.0451177     3265.322    451.60686 
 1858000    766.37417    -894.1837            0   -881.50381    4224.7971     13.45396    13.353653    13.253679    2.0945324    3267.1773    449.74796 
 1859000    912.02789   -895.43251            0   -880.34273    6636.9162     13.45396    13.353653    13.253679    2.1250952    3269.0335    447.88918 
 1860000    920.58508   -893.68197            0   -878.45062    7456.3813     13.45396    13.353653    13.253679    2.1106512    3270.8925    446.03079 
 1861000     815.6645   -895.36111            0    -881.8657    5171.8959     13.45396    13.353653    13.253679    1.8554362    3272.7459    444.17165 
 1862000    799.40623   -894.44142            0   -881.21501    3078.6161     13.45396    13.353653    13.253679    2.6466315     3274.614     442.3145 
 1863000    871.95254   -892.81515            0   -878.38843    8613.3836     13.45396    13.353653    13.253679    2.9646344    3276.4804    440.45709 
 1864000    813.19693   -894.21781            0   -880.76323    4319.0945     13.45396    13.353653    13.253679    2.8827191    3278.3341    438.59799 
 1865000    767.86741   -894.31899            0   -881.61439    5203.2846     13.45396    13.353653    13.253679    2.3175683    3280.1907    436.73928 
 1866000    747.64045   -892.18411            0   -879.81418    7877.2761     13.45396    13.353653    13.253679    2.5225527    3282.0458    434.88036 
 1867000    768.04005   -893.22959            0   -880.52214    6527.2835     13.45396    13.353653    13.253679    3.0101992    3283.9019    433.02158 
 1868000    744.11234   -894.55222            0   -882.24066    4605.0085     13.45396    13.353653    13.253679    2.3196024    3285.7549     431.1624 
 1869000    697.25713   -892.27001            0   -880.73368    5447.4806     13.45396    13.353653    13.253679    3.0491974    3287.6135    429.30397 
 1870000    857.37858   -895.12975            0   -880.94416    4461.3722     13.45396    13.353653    13.253679    2.0644252    3289.4713    427.44543 
 1871000    751.85784   -893.87855            0   -881.43884    4636.9971     13.45396    13.353653    13.253679    2.6149286    3291.3301    425.58701 
 1872000    797.65299   -895.78876            0   -882.59135    5089.8801     13.45396    13.353653    13.253679    2.7634248    3293.1862    423.72825 
 1873000    803.33699   -892.93965            0    -879.6482    9206.0573     13.45396    13.353653    13.253679    2.6274745    3295.0534    421.87091 
 1874000    748.83298   -893.92292            0   -881.53326    6541.9976     13.45396    13.353653    13.253679     1.978116      3296.91    420.01221 
 1875000    751.44156   -895.08575            0   -882.65293    4428.3042     13.45396    13.353653    13.253679    2.3777201    3298.7709    418.15406 
 1876000    864.17673   -894.49452            0   -880.19646    5910.1957     13.45396    13.353653    13.253679    2.1853985    3300.6247    416.29501 
 1877000    708.28333   -893.44616            0    -881.7274     8832.179     13.45396    13.353653    13.253679    2.2449231    3302.4797    414.43611 
 1878000    703.49149   -894.47839            0   -882.83891    6554.5724     13.45396    13.353653    13.253679    2.0850042    3304.3362    412.57741 
 1879000    785.50004   -893.64207            0   -880.64574    7307.7464     13.45396    13.353653    13.253679    2.5331983    3306.1903    410.71842 
 1880000    779.89181   -893.84127            0   -880.93773    8674.4628     13.45396    13.353653    13.253679    2.3628675     3308.047    408.85974 
 1881000    743.16509   -895.65183            0   -883.35594    6679.3132     13.45396    13.353653    13.253679    2.1324768    3309.9026    407.00093 
 1882000    913.38069   -895.29664            0   -880.18448    6760.7465     13.45396    13.353653    13.253679    3.1205409    3311.7574    405.14204 
 1883000    828.61433   -894.61937            0    -880.9097    4340.1663     13.45396    13.353653    13.253679     2.175221    3313.6161    403.28363 
 1884000    719.80912   -896.18145            0   -884.27199    5124.2732     13.45396    13.353653    13.253679    2.1338729    3315.4721    401.42487 
 1885000     769.6203   -894.17624            0   -881.44264    4769.1912     13.45396    13.353653    13.253679    3.4410526    3317.3246    399.56571 
 1886000    670.51823   -891.54942            0   -880.45549    7468.7728     13.45396    13.353653    13.253679    3.2169381    3319.1891    397.70799 
 1887000    772.42688   -893.63387            0   -880.85384    4858.7922     13.45396    13.353653    13.253679    2.4293747    3321.0436    395.84907 
 1888000    746.66452   -895.39199            0   -883.03821    4471.1663     13.45396    13.353653    13.253679    2.2437435    3322.8974    393.99007 
 1889000     859.2613   -893.80087            0   -879.58414    7821.5613     13.45396    13.353653    13.253679    3.3353669    3324.7512    392.13108 
 1890000    816.78033   -894.80801            0   -881.29414     6532.453     13.45396    13.353653    13.253679    2.1844843    3326.6076    390.27241 
 1891000    695.84233   -893.39256            0   -881.87964    4681.6587     13.45396    13.353653    13.253679    3.0478738    3328.4668    388.41405 
 1892000    846.10642   -892.90573            0   -878.90665    11381.341     13.45396    13.353653    13.253679    2.4808585    3330.3256    386.55565 
 1893000    857.93888   -896.13535            0   -881.94049    5217.5829     13.45396    13.353653    13.253679    2.3748809    3332.1856    384.69739 
 1894000    820.01918   -893.81207            0   -880.24461    3922.8142     13.45396    13.353653    13.253679    3.5073705    3334.0426    382.83878 
 1895000    874.39755    -893.2274            0   -878.76023    7600.0265     13.45396    13.353653    13.253679    2.4435575    3335.8978    380.97997 
 1896000    842.75472   -894.89995            0   -880.95633    5467.6977     13.45396    13.353653    13.253679    2.2554554    3337.7529    379.12115 
 1897000    776.87811   -894.94677            0   -882.09309    6044.8257     13.45396    13.353653    13.253679    2.1185424    3339.6071    377.26224 
 1898000    694.24658   -893.52755            0   -882.04103    3234.7252     13.45396    13.353653    13.253679    3.1321086    3341.4657    375.40382 
 1899000    901.41495   -894.48383            0   -879.56965    6509.6203     13.45396    13.353653    13.253679    2.9205775    3343.3198    373.54491 
 1900000     737.2885   -895.21332            0   -883.01466     5279.053     13.45396    13.353653    13.253679    2.0776871    3345.1751    371.68613 
 1901000    724.93685   -893.61728            0   -881.62299    6672.4498     13.45396    13.353653    13.253679    2.0474059     3347.028    369.82708 
 1902000    768.52173   -892.90433            0   -880.18891    9923.1806     13.45396    13.353653    13.253679    2.6600776    3348.8847    367.96846 
 1903000    727.55321   -895.52215            0   -883.48456    3808.9198     13.45396    13.353653    13.253679    2.3004351    3350.7382     366.1095 
 1904000    783.16326   -894.20035            0   -881.24268    9259.5291     13.45396    13.353653    13.253679     3.434923    3352.5973    364.25115 
 1905000    788.19626    -893.5575            0   -880.51655    4518.0595     13.45396    13.353653    13.253679    2.3342344    3354.4555     362.3927 
 1906000    729.66772   -895.43044            0   -883.35787    2915.6068     13.45396    13.353653    13.253679    2.3584042    3356.3111    360.53397 
 1907000    828.40771   -895.26327            0   -881.55702    5116.9176     13.45396    13.353653    13.253679    1.8686549    3358.1627    358.67482 
 1908000    789.14173   -893.79776            0   -880.74118    2709.2563     13.45396    13.353653    13.253679    2.1557078    3360.0185    356.81612 
 1909000    773.80506   -895.09977            0   -882.29693     4764.232     13.45396    13.353653    13.253679    2.4410872    3361.8742    354.95742 
 1910000     817.4175   -895.98287            0   -882.45846     6653.027     13.45396    13.353653    13.253679    1.9516417    3363.7368    353.09944 
 1911000    912.69369   -895.01139            0    -879.9106    5210.0522     13.45396    13.353653    13.253679    2.3143005    3365.5893    351.24041 
 1912000    751.35225   -894.95206            0   -882.52071    3210.6859     13.45396    13.353653    13.253679    3.5530658    3367.4421    349.38142 
 1913000    727.79784   -893.59847            0   -881.55684    4179.7661     13.45396    13.353653    13.253679    2.4662193    3369.3005      347.523 
 1914000    877.27234   -894.21112            0   -879.69639    4500.8051     13.45396    13.353653    13.253679    2.6797502     3371.158    345.66449 
 1915000    767.37094   -895.17263            0   -882.47625    4572.2482     13.45396    13.353653    13.253679    2.6549974    3373.0096    343.80539 
 1916000    833.52274   -893.12092            0   -879.33004    7840.9129     13.45396    13.353653    13.253679    2.1910168    3374.8669    341.94686 
 1917000    740.85045    -892.4928            0   -880.23521    4711.9779     13.45396    13.353653    13.253679    2.4545267    3376.7254    340.08847 
 1918000    739.90703   -894.20693            0   -881.96495    5280.0298     13.45396    13.353653    13.253679    2.5180483    3378.5793    338.22961 
 1919000    929.37147   -893.50825            0   -878.13153    7836.7146     13.45396    13.353653    13.253679    2.9558453     3380.435    336.37094 
 1920000    808.15551   -894.08481            0   -880.71364    6597.4212     13.45396    13.353653    13.253679    2.3971024    3382.2941    334.51261 
 1921000    757.32101   -894.01065            0   -881.48055    3461.5068     13.45396    13.353653    13.253679    2.7521762    3384.1494    332.65389 
 1922000    888.81285   -892.47853            0   -877.77285    6131.9524     13.45396    13.353653    13.253679    2.0270034    3386.0051    330.79522 
 1923000    873.69557   -894.69244            0   -880.23689    4924.9901     13.45396    13.353653    13.253679    2.2238622    3387.8613    328.93662 
 1924000    792.93227   -894.57973            0   -881.46043    7862.9592     13.45396    13.353653    13.253679    2.6876952    3389.7158    327.07784 
 1925000    812.39012   -894.10943            0   -880.66819     7873.099     13.45396    13.353653    13.253679    3.0488688    3391.5721    325.21924 
 1926000    778.07227   -892.16251            0   -879.28907    7185.0656     13.45396    13.353653    13.253679    3.2747108    3393.4271    323.36053 
 1927000      802.534   -895.60198            0   -882.32382    3997.0932     13.45396    13.353653    13.253679    1.8859742    3395.2799     321.5016 
 1928000    804.89377   -893.98014            0   -880.66293    7764.2044     13.45396    13.353653    13.253679    2.7866354    3397.1344    319.64284 
 1929000    889.49645   -895.02538            0    -880.3084    5432.0917     13.45396    13.353653    13.253679    2.5900006    3398.9913    317.78431 
 1930000    719.17921   -895.82767            0   -883.92864      542.518     13.45396    13.353653    13.253679    2.9344032    3400.8449    315.92548 
 1931000    852.41128    -894.6309            0   -880.52751    3375.1943     13.45396    13.353653    13.253679    2.2499563     3402.705    314.06726 
 1932000    660.14701   -891.54275            0   -880.62042    6537.8662     13.45396    13.353653    13.253679    1.9508984    3404.5681     312.2093 
 1933000    739.19547    -895.5339            0   -883.30369    6676.3768     13.45396    13.353653    13.253679    3.2373355     3406.425    310.35078 
 1934000    735.64502   -893.42387            0    -881.2524    5990.2525     13.45396    13.353653    13.253679    2.9453028     3408.281    308.49217 
 1935000    746.45676    -892.7123            0   -880.36195    5998.5134     13.45396    13.353653    13.253679    2.6362753    3410.1384    306.63369 
 1936000    788.22035    -893.8531            0   -880.81176    4548.4931     13.45396    13.353653    13.253679    2.0309353    3411.9942    304.77508 
 1937000    797.98996   -895.70674            0   -882.50376      2699.31     13.45396    13.353653    13.253679    2.3226112    3413.8556    302.91697 
 1938000    886.86128   -893.78688            0    -879.1135    7815.1899     13.45396    13.353653    13.253679     2.839989     3415.712     301.0584 
 1939000    781.69686   -893.78076            0   -880.84735      3838.87     13.45396    13.353653    13.253679    2.1367401    3417.5673    299.19975 
 1940000    766.32207   -893.98801            0   -881.30898     3804.826     13.45396    13.353653    13.253679    1.7933396    3419.4264    297.34143 
 1941000    829.51906   -894.08744            0    -880.3628    8012.8328     13.45396    13.353653    13.253679    2.1106783     3421.281    295.48271 
 1942000    932.33675    -893.0425            0   -877.61671     6838.591     13.45396    13.353653    13.253679    2.6188662    3423.1356    293.62401 
 1943000    786.15479    -894.2371            0   -881.22994    9453.9517     13.45396    13.353653    13.253679    2.3366627    3424.9924    291.76549 
 1944000    815.03987   -894.37463            0   -880.88955    4191.4958     13.45396    13.353653    13.253679    2.4666735    3426.8474    289.90683 
 1945000    914.09514   -893.26416            0   -878.14019     7387.126     13.45396    13.353653    13.253679    2.3069907    3428.7006    288.04802 
 1946000    763.05352   -894.43974            0    -881.8148    1255.8738     13.45396    13.353653    13.253679    1.7358244    3430.5528    286.18913 
 1947000    830.69737   -894.29175            0   -880.54761    7738.7291     13.45396    13.353653    13.253679     2.653413    3432.4082    284.33051 
 1948000    891.25366   -892.84462            0   -878.09856    5632.5837     13.45396    13.353653    13.253679    2.5226347    3434.2643    282.47196 
 1949000    727.07844    -893.7902            0   -881.76047    4567.2665     13.45396    13.353653    13.253679    2.6854359    3436.1204     280.6134 
 1950000    791.13012   -894.38557            0   -881.29608     3663.374     13.45396    13.353653    13.253679     2.096351    3437.9746    278.75469 
 1951000    811.80138   -892.24131            0   -878.80981    5749.2405     13.45396    13.353653    13.253679    3.2364208     3439.833    276.89634 
 1952000    766.98328   -895.25408            0   -882.56411    1023.0467     13.45396    13.353653    13.253679    2.3119291    3441.6879    275.03769 
 1953000    841.00013   -893.98925            0   -880.07465    3439.8882     13.45396    13.353653    13.253679    2.6387179    3443.5453    273.17926 
 1954000     841.3356   -893.98977            0   -880.06962    7544.0941     13.45396    13.353653    13.253679    2.8272895    3445.4014    271.32072 
 1955000    760.92058   -895.24694            0   -882.65728    5009.3015     13.45396    13.353653    13.253679    1.9101824    3447.2531    269.46183 
 1956000    801.06575   -893.57903            0   -880.32516    4898.8401     13.45396    13.353653    13.253679    2.2309998    3449.1113    267.60346 
 1957000    792.57272   -893.89516            0   -880.78181    5865.8283     13.45396    13.353653    13.253679    2.4631991    3450.9645    265.74471 
 1958000     687.3192   -895.48088            0   -884.10898    2609.9531     13.45396    13.353653    13.253679    2.0644635    3452.8287     263.8868 
 1959000    775.62933   -894.15993            0   -881.32691    5137.7083     13.45396    13.353653    13.253679    2.3603758    3454.6844    262.02824 
 1960000    905.47811   -894.99956            0   -880.01816    5386.4254     13.45396    13.353653    13.253679    2.3445843    3456.5386    260.16957 
 1961000    802.69325    -894.2606            0    -880.9798    4505.0732     13.45396    13.353653    13.253679     2.127908    3458.3939    258.31099 
 1962000    756.04207   -894.85966            0   -882.35072    2985.7368     13.45396    13.353653    13.253679    2.8991836    3460.2492    256.45241 
 1963000    892.02321   -893.98507            0   -879.22628     3111.165     13.45396    13.353653    13.253679    2.1818647    3462.1036    254.59377 
 1964000    798.16298   -894.34819            0   -881.14234    2741.8468     13.45396    13.353653    13.253679    3.9177575    3463.9611    252.73536 
 1965000    760.72812   -894.25239            0   -881.66592    4308.8366     13.45396    13.353653    13.253679    2.0674187    3465.8152     250.8767 
 1966000    807.14047   -892.16461            0   -878.81023    11414.392     13.45396    13.353653    13.253679     2.203753    3467.6696    249.01808 
 1967000    774.93667   -894.49254            0   -881.67098    6151.6352     13.45396    13.353653    13.253679    2.1661453    3469.5234    247.15941 
 1968000     801.0575   -894.09412            0   -880.84039    6359.3881     13.45396    13.353653    13.253679    3.3284861    3471.3773    245.30075 
 1969000    881.14483   -892.55686            0   -877.97805    4336.4978     13.45396    13.353653    13.253679    3.0967267     3473.234     243.4423 
 1970000    811.08481    -894.9522            0   -881.53256    5009.0546     13.45396    13.353653    13.253679    2.0313115    3475.0945    241.58411 
 1971000    769.97207   -893.75413            0   -881.01471    7299.1971     13.45396    13.353653    13.253679    2.6803624    3476.9496    239.72555 
 1972000    888.88964   -893.62167            0   -878.91473    5751.3892     13.45396    13.353653    13.253679    2.3808549    3478.8065    237.86711 
 1973000    792.48871   -893.87168            0   -880.75971    8260.1498     13.45396    13.353653    13.253679     2.160393    3480.6684    236.00902 
 1974000     727.5803   -893.48167            0   -881.44364     9749.233     13.45396    13.353653    13.253679    2.8875328     3482.521    234.15029 
 1975000    755.02865   -895.50146            0   -883.00929    2598.8212     13.45396    13.353653    13.253679    2.7604983    3484.3777    232.29184 
 1976000    813.55182   -893.22605            0   -879.76559    7717.9185     13.45396    13.353653    13.253679    2.7578327    3486.2316    230.43322 
 1977000    812.07233   -894.55608            0    -881.1201     7215.656     13.45396    13.353653    13.253679    2.7338376    3488.0875    228.57473 
 1978000    718.60265   -896.06916            0   -884.17966    3333.4711     13.45396    13.353653    13.253679    2.2850804    3489.9392    226.71597 
 1979000    769.27974   -893.71746            0    -880.9895    8171.9137     13.45396    13.353653    13.253679    2.4859647    3491.8004    224.85782 
 1980000    867.26252   -893.98965            0   -879.64053     5916.855     13.45396    13.353653    13.253679    2.2786652    3493.6535    222.99916 
 1981000    767.90173   -895.25677            0   -882.55161    4150.2755     13.45396    13.353653    13.253679    2.5135369    3495.5073    221.14055 
 1982000     872.3268    -894.1532            0   -879.72029      7796.61     13.45396    13.353653    13.253679    2.1761064    3497.3629    219.28205 
 1983000    820.39005    -893.7109            0    -880.1373    6653.2229     13.45396    13.353653    13.253679    1.9609071    3499.2166    217.42344 
 1984000    712.06323    -893.9251            0   -882.14381     3457.895     13.45396    13.353653    13.253679     2.164664     3501.072    215.56494 
 1985000    846.47721   -892.70322            0     -878.698    7068.1536     13.45396    13.353653    13.253679      2.23017    3502.9272    213.70643 
 1986000    804.75539   -894.14926            0   -880.83435    5578.9817     13.45396    13.353653    13.253679    1.8734269    3504.7888    211.84831 
 1987000    747.57262   -893.86764            0   -881.49883    4932.9849     13.45396    13.353653    13.253679    3.3165929    3506.6418    209.98968 
 1988000    918.42654   -894.99554            0    -879.7999    3255.0145     13.45396    13.353653    13.253679    2.2829971    3508.4952    208.13107 
 1989000    882.66561   -892.98469            0   -878.38072    3029.5858     13.45396    13.353653    13.253679    2.2400551    3510.3583    206.27304 
 1990000    803.28768   -894.34695            0   -881.05632    5518.7421     13.45396    13.353653    13.253679    2.0989271    3512.2125    204.41449 
 1991000    817.39883   -894.42225            0   -880.89814    5813.5733     13.45396    13.353653    13.253679    1.5889956    3514.0674    202.55598 
 1992000    917.45473   -893.69913            0   -878.51957    11442.802     13.45396    13.353653    13.253679    2.6538547     3515.924    200.69757 
 1993000    726.18155   -894.08593            0   -882.07104    6683.6636     13.45396    13.353653    13.253679    2.4010792    3517.7776    198.83899 
 1994000    752.81943    -893.0578            0   -880.60217    4308.2117     13.45396    13.353653    13.253679    2.6282982    3519.6322    196.98047 
 1995000    953.73862   -893.75308            0   -877.97319    7591.4605     13.45396    13.353653    13.253679    2.6222586    3521.4872    195.12198 
 1996000    860.53416   -894.35599            0   -880.11819    8119.2931     13.45396    13.353653    13.253679    2.7576245    3523.3435    193.26357 
 1997000    701.17902   -893.53453            0   -881.93332    3960.2631     13.45396    13.353653    13.253679    2.6513549    3525.2169    191.40609 
 1998000    802.83501   -892.13481            0   -878.85166    5826.4586     13.45396    13.353653    13.253679    2.9009488    3527.0716    189.54758 
 1999000    835.03081   -893.98991            0   -880.17407    6417.9847     13.45396    13.353653    13.253679     2.481685    3528.9367    187.68963 
 2000000    787.22895   -894.16558            0   -881.14064    5740.1001     13.45396    13.353653    13.253679    2.7843366     3530.795    185.83132 
 2001000    737.27284   -893.98992            0   -881.79152    6438.0038     13.45396    13.353653    13.253679    2.3149709    3532.6577    183.97323 
 2002000    872.08652   -894.08833            0    -879.6594    5617.6537     13.45396    13.353653    13.253679    2.0465765    3534.5133    182.11478 
 2003000    797.04221   -894.12432            0   -880.93702    6142.9145     13.45396    13.353653    13.253679    1.5763116    3536.3735    180.25656 
 2004000    834.68464   -895.89713            0   -882.08702    6115.2609     13.45396    13.353653    13.253679    2.0719821    3538.2352    178.39841 
 2005000    847.46639   -894.02005            0   -879.99846    4254.2969     13.45396    13.353653    13.253679    2.1637142    3540.0939    176.54011 
 2006000     797.0239   -893.70775            0   -880.52075    6501.6569     13.45396    13.353653    13.253679      2.35547    3541.9531    174.68184 
 2007000    807.96388   -894.79784            0   -881.42984    4710.3084     13.45396    13.353653    13.253679    2.2916177    3543.8117    172.82354 
 2008000     854.9966    -896.0552            0   -881.90903    4662.2878     13.45396    13.353653    13.253679    2.0711179    3545.6665    170.96505 
 2009000    855.83572   -893.91218            0   -879.75213    6838.8628     13.45396    13.353653    13.253679    2.4208884    3547.5207    169.10654 
 2010000    815.82187   -894.65699            0   -881.15897    4901.9966     13.45396    13.353653    13.253679    2.0055591    3549.3778    167.24817 
 2011000    719.24946   -894.11659            0   -882.21639    8488.5454     13.45396    13.353653    13.253679    2.3336667    3551.2363    165.38986 
 2012000    749.23998   -892.57457            0   -880.17817    9459.4315     13.45396    13.353653    13.253679    2.5634495    3553.0926    163.53146 
 2013000    804.41225    -894.1252            0   -880.81596    3417.2416     13.45396    13.353653    13.253679    2.7862736    3554.9503    161.67312 
 2014000    611.24586   -893.67227            0   -883.55903    6825.7412     13.45396    13.353653    13.253679    2.7991066    3556.8064    159.81471 
 2015000    853.84179   -895.81833            0   -881.69126     7182.225     13.45396    13.353653    13.253679    2.3522707    3558.6695    157.95661 
 2016000    898.59107   -895.23927            0   -880.37181    4989.5147     13.45396    13.353653    13.253679    1.6372177     3560.529    156.09835 
 2017000    726.55332   -893.76105            0   -881.74001    2922.7713     13.45396    13.353653    13.253679    2.1342552     3562.389    154.24011 
 2018000    719.38369   -894.43107            0   -882.52865    4309.2726     13.45396    13.353653    13.253679    2.3544238    3564.2454    152.38171 
 2019000    786.30954   -892.85818            0   -879.84845    6946.3677     13.45396    13.353653    13.253679    2.4627782    3566.1043    150.52342 
 2020000    744.53218   -894.39067            0   -882.07216    4903.0614     13.45396    13.353653    13.253679    2.1486883    3567.9609    148.66504 
 2021000     815.8414   -896.65955            0   -883.16121    2910.1987     13.45396    13.353653    13.253679     1.845768    3569.8187     146.8067 
 2022000    818.83392   -893.19657            0   -879.64872    3771.0624     13.45396    13.353653    13.253679    2.4355045     3571.675    144.94831 
 2023000    725.03512   -893.37388            0   -881.37796    5146.3409     13.45396    13.353653    13.253679    3.6066217    3573.5336    143.09001 
 2024000    730.21445   -894.34836            0   -882.26674     4125.307     13.45396    13.353653    13.253679    2.5895394    3575.3911    141.23166 
 2025000    782.94394   -893.41689            0   -880.46285    4620.4162     13.45396    13.353653    13.253679    2.6726524    3577.2487    139.37332 
 2026000    782.11908    -894.0228            0    -881.0824     4211.826     13.45396    13.353653    13.253679    1.8945966    3579.1054    137.51495 
 2027000    746.30912   -893.68782            0   -881.33991    5846.5632     13.45396    13.353653    13.253679    2.1598941     3580.962    135.65658 
 2028000    857.78206   -893.01501            0   -878.82275    7119.8783     13.45396    13.353653    13.253679    2.4946996      3582.82    133.79826 
 2029000    794.34564   -895.18393            0   -882.04124    6474.8752     13.45396    13.353653    13.253679    2.4145814      3584.68    131.94001 
 2030000    816.43134   -894.60431            0   -881.09621    6386.6498     13.45396    13.353653    13.253679    2.0963182    3586.5361    130.08162 
 2031000    756.21964   -891.93056            0   -879.41868    9592.6799     13.45396    13.353653    13.253679     2.700591    3588.4015    128.22357 
 2032000    696.10936   -894.32295            0   -882.80561    4529.3872     13.45396    13.353653    13.253679    2.2678924    3590.2597    126.36525 
 2033000    687.64839   -891.55896            0   -880.18161    11606.064     13.45396    13.353653    13.253679    2.4760458    3592.1158    124.50686 
 2034000    869.65552   -894.60171            0     -880.213    3638.8118     13.45396    13.353653    13.253679    2.7564897    3593.9754    122.64859 
 2035000    684.28455   -895.32127            0   -883.99958    1984.0725     13.45396    13.353653    13.253679    2.3295868    3595.8328    120.79025 
 2036000    727.31944   -895.54781            0   -883.51409    2883.7154     13.45396    13.353653    13.253679    2.7587009    3597.6904    118.93191 
 2037000    835.12987   -894.06405            0   -880.24657    8143.8265     13.45396    13.353653    13.253679    3.0695892     3599.546    117.07352 
 2038000    778.45954   -893.14866            0   -880.26881    6969.5009     13.45396    13.353653    13.253679     2.535415    3601.4045    115.21521 
 2039000     706.9409   -894.60663            0   -882.91008    1762.1465     13.45396    13.353653    13.253679    2.5130035    3603.2686    113.35708 
 2040000    799.51941   -893.82119            0    -880.5929    5889.2409     13.45396    13.353653    13.253679    2.8245902     3605.128     111.4988 
 2041000    796.07551   -893.93696            0   -880.76566    7371.3588     13.45396    13.353653    13.253679    1.7344475    3606.9836    109.64041 
 2042000    766.87492   -895.52577            0   -882.83759    4279.9687     13.45396    13.353653    13.253679    2.3658744    3608.8398    107.78203 
 2043000    887.05385   -895.45088            0   -880.77431     7975.112     13.45396    13.353653    13.253679    2.1802309    3610.6936    105.92359 
 2044000     814.6922    -893.7574            0   -880.27808    3899.5734     13.45396    13.353653    13.253679      2.14043    3612.5512    104.06526 
 2045000    733.91085   -895.15771            0   -883.01493    5901.9858     13.45396    13.353653    13.253679    2.7720279    3614.4097    102.20696 
 2046000    857.95756   -894.20899            0   -880.01382    5682.8266     13.45396    13.353653    13.253679    3.0482702    3616.2741    100.34882 
 2047000    793.57938   -893.57301            0     -880.443    8228.9045     13.45396    13.353653    13.253679    2.8065881    3618.1294    98.490426 
 2048000    791.08727    -895.3492            0   -882.26042    6480.7576     13.45396    13.353653    13.253679    3.3728858    3619.9851    96.632045 
 2049000     836.6065   -892.19903            0   -878.35713    7530.2602     13.45396    13.353653    13.253679    2.2151064    3621.8418    94.773694 
 2050000    891.12098   -895.03824            0   -880.29438    6867.8752     13.45396    13.353653    13.253679     2.825411       3623.7    92.915385 
 2051000    802.80578    -895.4237            0   -882.14104    6095.9427     13.45396    13.353653    13.253679    2.5072093    3625.5557    91.057011 
 2052000    878.36719   -892.91785            0     -878.385    7953.7554     13.45396    13.353653    13.253679    2.8843211    3627.4108    89.198627 
 2053000    754.10424   -893.05235            0   -880.57547    7934.3599     13.45396    13.353653    13.253679    2.5253814    3629.2708    87.340362 
 2054000     769.9792   -894.28169            0   -881.54215    4796.2406     13.45396    13.353653    13.253679    2.0036458    3631.1282    85.482035 
 2055000    882.82323   -893.12941            0   -878.52284    8538.6889     13.45396    13.353653    13.253679    2.1345571    3632.9854    83.623706 
 2056000    866.74955   -894.12442            0   -879.78379    7619.3577     13.45396    13.353653    13.253679    3.1888743    3634.8504     81.76555 
 2057000    805.79989   -894.58362            0   -881.25142    3883.4949     13.45396    13.353653    13.253679    2.2051915    3636.7066    79.907198 
 2058000    786.93746   -893.52716            0   -880.50705    7063.5428     13.45396    13.353653    13.253679    2.2999862    3638.5624    78.048835 
 2059000    887.33878   -893.67705            0   -878.99576    5910.5064     13.45396    13.353653    13.253679    2.1178111    3640.4181    76.190477 
 2060000    766.75987   -894.75501            0   -882.06874    4430.7859     13.45396    13.353653    13.253679    1.9905586    3642.2871     74.33239 
 2061000     880.8676   -894.96595            0   -880.39173    3801.9311     13.45396    13.353653    13.253679     2.569329    3644.1454    72.474079 
 2062000    882.66698   -890.83857            0   -876.23458    10485.866     13.45396    13.353653    13.253679      2.55037     3646.002    70.615738 
 2063000    890.09423   -894.44401            0   -879.71714    4620.2206     13.45396    13.353653    13.253679    2.3735593    3647.8652     68.75752 
 2064000    735.42477   -894.02774            0   -881.85992    4726.7779     13.45396    13.353653    13.253679    2.4850556    3649.7218    66.899178 
 2065000    807.48302   -893.24764            0   -879.88759    5071.3958     13.45396    13.353653    13.253679    2.3815921    3651.5775    65.040821 
 2066000    800.27992   -892.84299            0   -879.60212    5902.9443     13.45396    13.353653    13.253679    2.1508485    3653.4354    63.182504 
 2067000    731.79011   -892.98255            0   -880.87487    8645.3161     13.45396    13.353653    13.253679    2.2455924    3655.2988     61.32428 
 2068000     810.3273   -893.70834            0   -880.30123    5365.4108     13.45396    13.353653    13.253679    2.3854139    3657.1678    59.466143 
 2069000    844.16379   -893.33157            0   -879.36463    6890.7718     13.45396    13.353653    13.253679    2.7698475    3659.0387    57.608024 
 2070000    715.41537   -894.01059            0   -882.17383    6798.7757     13.45396    13.353653    13.253679    2.7124644    3660.9053    55.749827 
 2071000    779.55173   -891.88208            0   -878.98417    7873.9051     13.45396    13.353653    13.253679    1.7555945    3662.7669    53.891548 
 2072000    780.69773   -892.79607            0   -879.87919    6180.4261     13.45396    13.353653    13.253679    1.8610107    3664.6314    52.033305 
 2073000    781.82716   -894.67619            0   -881.74063    8067.7487     13.45396    13.353653    13.253679    2.2334651     3666.486    50.174923 
 2074000    830.87767   -891.96875            0   -878.22163    6267.0477     13.45396    13.353653    13.253679    2.3301254    3668.3401    48.316537 
 2075000    801.01715    -893.6239            0   -880.37083    6855.2477     13.45396    13.353653    13.253679     3.330008    3670.2076    46.458324 
 2076000    805.63984   -894.49594            0   -881.16639    8171.3627     13.45396    13.353653    13.253679    2.2596885     3672.069    44.600028 
 2077000     838.7267   -891.54806            0   -877.67108    6647.6024     13.45396    13.353653    13.253679    3.1693026    3673.9345    42.741777 
 2078000    915.00684   -894.38124            0   -879.24218    5432.6195     13.45396    13.353653    13.253679    1.7989727    3675.7891    40.883398 
 2079000    801.83303   -894.59128            0   -881.32471    7160.2144     13.45396    13.353653    13.253679    2.5190376    3677.6503    39.025092 
 2080000    767.92675   -894.75603            0   -882.05046    6649.9441     13.45396    13.353653    13.253679    2.0546345    3679.5062    37.166729 
 2081000     858.6629    -893.2433            0   -879.03646    6905.4799     13.45396    13.353653    13.253679    3.2392441    3681.3624    35.308372 
 2082000    800.31766   -895.16271            0   -881.92122    6986.9914     13.45396    13.353653    13.253679    2.2662649    3683.2172    33.450005 
 2083000    800.87808   -894.83559            0   -881.58483    6150.5458     13.45396    13.353653    13.253679    1.7696415    3685.0718     31.59164 
 2084000    806.24747   -893.24882            0   -879.90922    9266.5397     13.45396    13.353653    13.253679     2.184794    3686.9273    29.733285 
 2085000    807.73272    -891.1957            0   -877.83153    9626.2692     13.45396    13.353653    13.253679      2.39752    3688.7851    27.874951 
 2086000    762.94813   -894.19072            0   -881.56752    4469.6031     13.45396    13.353653    13.253679    1.8377015     3690.641    26.016603 
 2087000    769.99224   -893.60672            0   -880.86697    7420.2647     13.45396    13.353653    13.253679    2.6517653    3692.4963    24.158254 
 2088000    845.83445   -892.53136            0   -878.53678    6011.8631     13.45396    13.353653    13.253679    2.9033458    3694.3538    22.299923 
 2089000     807.9464   -895.57717            0   -882.20946    5086.3281     13.45396    13.353653    13.253679    2.3431136    3696.2121    20.441595 
 2090000    899.71192   -894.94622            0   -880.06022    6072.0636     13.45396    13.353653    13.253679     2.463843    3698.0638    18.583235 
 2091000    860.59457   -894.82611            0   -880.58732    6291.1007     13.45396    13.353653    13.253679    2.2079834    3699.9195      16.7249 
 2092000    730.93438   -894.46439            0   -882.37087    3383.5236     13.45396    13.353653    13.253679    2.7376671    3701.7727    14.866557 
 2093000    849.84756   -893.92242            0   -879.86143    4335.5551     13.45396    13.353653    13.253679    3.7997145    3703.6359    13.008254 
 2094000    801.92333    -894.2383            0   -880.97024    6105.9662     13.45396    13.353653    13.253679    2.6960358    3705.5084    11.149975 
 2095000    754.17361    -893.5709            0   -881.09287    7367.3363     13.45396    13.353653    13.253679    2.3375622    3707.3656     9.291643 
 2096000    819.38962   -893.92919            0   -880.37214    4362.4079     13.45396    13.353653    13.253679    1.8291691    3709.2275    7.4333217 
 2097000    902.54254   -895.35063            0   -880.41779    5717.8787     13.45396    13.353653    13.253679    2.4979262    3711.0891    5.5749962 
 2098000    741.49686   -895.03812            0   -882.76983    2783.6428     13.45396    13.353653    13.253679    2.3574486     3712.956    3.7166727 
 2099000     839.5286   -893.01168            0   -879.12143    5751.0633     13.45396    13.353653    13.253679    2.6421503    3714.8159    1.8583371 
 2100000    839.82273   -895.25791            0   -881.36279    4039.4418     13.45396    13.353653    13.253679    1.9431207    3716.6713            0 
Loop time of 3716.67 on 1 procs for 2000000 steps with 129 atoms

Performance: 46.493 ns/day, 0.516 hours/ns, 538.116 timesteps/s
99.9% CPU use with 1 MPI tasks x no OpenMP threads

MPI task timing breakdown:
Section |  min time  |  avg time  |  max time  |%varavg| %total
---------------------------------------------------------------
Pair    | 2506.7     | 2506.7     | 2506.7     |   0.0 | 67.44
Kspace  | 1135.3     | 1135.3     | 1135.3     |   0.0 | 30.54
Neigh   | 29.399     | 29.399     | 29.399     |   0.0 |  0.79
Comm    | 32.517     | 32.517     | 32.517     |   0.0 |  0.87
Output  | 0.55555    | 0.55555    | 0.55555    |   0.0 |  0.01
Modify  | 5.8391     | 5.8391     | 5.8391     |   0.0 |  0.16
Other   |            | 6.414      |            |       |  0.17

Nlocal:        129.000 ave         129 max         129 min
Histogram: 1 0 0 0 0 0 0 0 0 0
Nghost:        3838.00 ave        3838 max        3838 min
Histogram: 1 0 0 0 0 0 0 0 0 0
Neighs:        40217.0 ave       40217 max       40217 min
Histogram: 1 0 0 0 0 0 0 0 0 0

Total # of neighbors = 40217
Ave neighs/atom = 311.75969
Neighbor list builds = 28203
Dangerous builds = 0

# Final Commands
variable final_energy equal etotal
print "final_energy: ${final_energy}"
final_energy: -881.362791578049
print "END_OF_COMP"
END_OF_COMP
Total wall time: 1:05:33
