LAMMPS (10 Feb 2021)
# Input written to comply with LAMMPS 2017-08-11 00:00:00

# Atomic Configuration
units           metal
boundary        p p p
box tilt large
atom_style      charge
read_data       na3ocl.lmp
Reading data file ...
  orthogonal box = (0.0000000 0.0000000 0.0000000) to (13.503000 13.503000 13.503000)
  1 by 1 by 1 MPI processor grid
  reading atoms ...
  135 atoms
  read_data CPU = 0.001 seconds

# Potential Setup
pair_style  buck/coul/long 12.0
pair_coeff * * 0.0 1.0 0.0
pair_coeff 1 1    1788.190000  0.159000   0.000000 # Na Na
pair_coeff 1 3    1170.410000  0.315000   0.000000 # Na Cl
pair_coeff 1 2     588.380000  0.338000   0.000000 # Na O
pair_coeff 3 3    1227.200000  0.321000  14.530000 # Cl Cl
pair_coeff 2 3    8286.910000  0.259000  62.200000 # Cl O
pair_coeff 2 2   22764.300000  0.149000  13.190000 # O  O
kspace_style pppm 1e-05

# General Setup
timestep        0.001

# Thermodynamic Information Output
thermo_style custom step temp epair emol etotal press lx ly lz fmax cpu cpuremain
thermo          1000

# Intial Atom Velocity
velocity all create 800 80800 dist gaussian rot yes

# Stage 0: npt_equilibriation
restart         0
fix             int all npt aniso 1.0 1.0 0.1 temp 800 800 0.5
run             50000
PPPM initialization ...
  using 12-bit tables for long-range coulomb (../kspace.cpp:339)
  G vector (1/distance) = 0.27806613
  grid = 15 15 15
  stencil order = 5
  estimated absolute RMS force accuracy = 6.1564455e-05
  estimated relative force accuracy = 4.2754148e-06
  using double precision KISS FFT
  3d grid and FFT values/proc = 10648 3375
Neighbor list info ...
  update every 1 steps, delay 10 steps, check yes
  max neighbors/atom: 2000, page size: 100000
  master list distance cutoff = 14
  ghost atom cutoff = 14
  binsize = 7, bins = 2 2 2
  1 neighbor lists, perpetual/occasional/extra = 1 0 0
  (1) pair buck/coul/long, perpetual
      attributes: half, newton on
      pair build: half/bin/atomonly/newton
      stencil: half/bin/3d/newton
      bin: standard
Per MPI rank memory allocation (min/avg/max) = 4.411 | 4.411 | 4.411 Mbytes
Step Temp E_pair E_mol TotEng Press Lx Ly Lz Fmax CPU CPULeft 
       0          800    -935.0408            0   -921.18412   -18577.158       13.503       13.503       13.503 2.2762301e-07            0            0 
    1000    550.53039   -925.95916            0    -916.4235   -6441.7968    13.450268     13.42736    13.440149     1.597015      2.71207    132.89163 
    2000    773.15199   -922.95923            0   -909.56757   -2204.0816      13.4404     13.33764    13.654812     2.339967    5.3477862    128.34687 
    3000    884.76507   -920.95413            0   -905.62923    3044.2583    13.368123    13.550988    13.416406    3.3091333     7.966593    124.80996 
    4000     782.9017   -923.71506            0   -910.15453   -2807.5469    13.148624     13.82462    13.506629    1.7947181    10.580981    121.68128 
    5000    794.40814   -922.94069            0   -909.18086   -2124.2227    13.305868    13.463844    13.612329    2.7644142    13.210715    118.89644 
    6000    858.55906   -921.88145            0   -907.01047   -3011.7105    13.371316    13.634106    13.494507    2.2264245    15.818317    116.00099 
    7000    807.32055   -922.82293            0   -908.83945   -1269.4594    13.539589    13.495201    13.326143    1.9771704    18.426881     113.1937 
    8000    751.79726   -923.13123            0   -910.10945   -11534.727    13.640453    13.712768    13.394018    1.8587319    21.045876    110.49085 
    9000     840.5167   -921.68709            0   -907.12861    7031.3908    13.531851    13.215773    13.415819    2.0997964    23.652326    107.74949 
   10000      765.563   -922.43993            0   -909.17972    3083.4447    13.357899    13.400552    13.470354    2.8475187    26.275854    105.10342 
   11000    790.88993   -923.24644            0   -909.54755     3123.841    13.332243    13.351679    13.497728    1.9358199    28.901935     102.4705 
   12000    774.24253   -919.57453            0   -906.16398   -6738.1013    13.514935    13.647397    13.611591    2.1013444    31.526595    99.834218 
   13000    759.57218   -922.68969            0   -909.53324   -793.37547     13.57566    13.248246    13.536986     2.261163     34.14313    97.176604 
   14000    831.35794   -922.39561            0   -907.99577   -3967.5389    13.628275    13.425556    13.480854    2.1262271    36.765434    94.539687 
   15000    821.62929   -920.97186            0   -906.74053   -4043.9014    13.413941    13.800078    13.379445    2.1088961    39.385824    91.900259 
   16000     882.0651   -924.14005            0   -908.86192    170.00776    13.505312    13.452636    13.348189      1.81966    42.000761    89.251617 
   17000    755.94368   -921.38689            0   -908.29329    7451.9354    13.279807    13.429566    13.460406    2.7361499    44.622999    86.621116 
   18000    878.69411   -920.87135            0   -905.65162   -8891.8475    13.661577    13.663797    13.405154    2.4728368    47.244496    83.990217 
   19000    737.52108      -921.76            0    -908.9855    6048.1828    13.656881    13.226741    13.257749    2.5386206    49.864679    81.358162 
   20000    788.79066    -921.3429            0   -907.68037   -964.30123    13.552091    13.384108    13.516339    2.4948413    52.491162    78.736745 
   21000    775.37956   -923.30317            0   -909.87293   -2809.4381    13.311921    13.355826    13.693069    1.8012621    55.111762     76.10672 
   22000     737.1757   -921.89591            0   -909.12739   -8037.3129    13.544135    13.596093    13.480927    2.3506045    57.724912     73.46807 
   23000    762.73279   -920.84695            0   -907.63576   -2551.0028    13.613263    13.278164    13.643645    2.1386903    60.338481     70.83213 
   24000     773.0096   -923.75749            0    -910.3683    546.06757    13.351284    13.456098    13.469464    1.8793452    62.961936    68.208765 
   25000    783.05164   -923.60025            0   -910.03712    6990.3398    13.423249    13.239165    13.295025     1.790938    65.585005    65.585005 
   26000    852.35386   -922.05975            0   -907.29624    9193.3723     13.53997    13.327784    13.182319    2.8262954    68.212262    62.965166 
   27000    746.97418    -922.8276            0   -909.88937    -2470.251    13.661958    13.286081    13.410026    2.7387264     70.82488    60.332306 
   28000    808.23389   -922.51798            0   -908.51867    -1985.261    13.512219     13.57615     13.35675    2.5244707    73.441169    57.703777 
   29000    785.40172   -921.13059            0   -907.52676   -1706.5501    13.365333    13.577539    13.491882    2.2857349    76.060308    55.078157 
   30000    722.14276   -922.66483            0    -910.1567    668.88927    13.315345    13.476908    13.433957    2.0473479    78.673408    52.448939 
   31000    823.90849   -922.33567            0   -908.06486   -4386.9993    13.489816    13.472779    13.426319    2.3487169    81.296679    49.826998 
   32000    814.01145   -922.69581            0   -908.59643   -726.53157     13.52249    13.318213     13.50313    2.2762017    83.908884    47.198747 
   33000    778.57282   -922.44749            0   -908.96194    13444.063    13.476019    13.332827    13.130947     1.969425    86.525144    44.573559 
   34000    830.86781   -921.72537            0   -907.33402    972.14853    13.309969     13.61299     13.38015    2.5663115    89.148343    41.952162 
   35000     840.0556    -921.6481            0   -907.09762    1377.7952    13.252711     13.43138    13.625891    1.8499434    91.769813     39.32992 
   36000    808.92567   -923.54348            0   -909.53219    2610.9364    13.402871    13.417879    13.455078    2.2639477    94.397269     36.71005 
   37000    787.87427   -920.77718            0   -907.13052    7542.3955    13.384836    13.437294    13.291096    2.6353052    97.009981    34.084588 
   38000    899.62199   -923.03536            0   -907.45313     3263.801    13.437488    13.247557    13.531829    2.8322322    99.633126    31.463093 
   39000    750.31692   -923.06341            0   -910.06727   -4336.4158    13.585785    13.289394    13.590333    2.0112943    102.26264    28.843309 
   40000    874.23949   -921.82084            0   -906.67826   -6040.4598    13.602637    13.405695    13.549463    2.1110277    104.87621    26.219053 
   41000    824.53625   -922.44421            0   -908.16253    6847.9527    13.483153    13.448424    13.222699    2.0733025    107.49875    23.597287 
   42000    833.38098   -922.85719            0   -908.42231    1742.4536    13.488905     13.44867    13.379909    2.2146758    110.11734    20.974732 
   43000    765.57791    -922.2895            0   -909.02903   -7418.2417    13.686541    13.515929    13.416557    2.0811847    112.73743    18.352606 
   44000    818.26969   -922.66944            0    -908.4963    3367.8251    13.447071    13.497589    13.322113    2.3864077    115.36533    15.731636 
   45000    828.17927    -920.9357            0   -906.59092    3935.5382    13.459631    13.469325    13.367666    3.2380171    117.97655    13.108506 
   46000    773.96244   -923.39878            0   -909.99308   -1963.4565      13.5464    13.376604    13.363552    2.2785819    120.59308    10.486355 
   47000    788.08722   -922.24806            0   -908.59772   -474.62574    13.377169    13.468692    13.539791    2.3420255    123.22006    7.8651105 
   48000    862.08346   -923.07456            0   -908.14254    3244.3013    13.458603    13.526897    13.224991    3.5198393    125.83319    5.2430497 
   49000    749.59143    -921.7922            0   -908.80863   -4031.3697    13.257441    13.514522    13.690782    2.2776349    128.45123    2.6214538 
   50000    824.85544   -921.49591            0    -907.2087   -1321.1289    13.311588    13.588916    13.530396     2.371723    131.07383            0 
Loop time of 131.074 on 1 procs for 50000 steps with 135 atoms

Performance: 32.959 ns/day, 0.728 hours/ns, 381.464 timesteps/s
99.9% CPU use with 1 MPI tasks x no OpenMP threads

MPI task timing breakdown:
Section |  min time  |  avg time  |  max time  |%varavg| %total
---------------------------------------------------------------
Pair    | 67.718     | 67.718     | 67.718     |   0.0 | 51.66
Kspace  | 29.321     | 29.321     | 29.321     |   0.0 | 22.37
Neigh   | 1.0998     | 1.0998     | 1.0998     |   0.0 |  0.84
Comm    | 0.89366    | 0.89366    | 0.89366    |   0.0 |  0.68
Output  | 0.00102    | 0.00102    | 0.00102    |   0.0 |  0.00
Modify  | 31.838     | 31.838     | 31.838     |   0.0 | 24.29
Other   |            | 0.2024     |            |       |  0.15

Nlocal:        135.000 ave         135 max         135 min
Histogram: 1 0 0 0 0 0 0 0 0 0
Nghost:        4015.00 ave        4015 max        4015 min
Histogram: 1 0 0 0 0 0 0 0 0 0
Neighs:        43112.0 ave       43112 max       43112 min
Histogram: 1 0 0 0 0 0 0 0 0 0

Total # of neighbors = 43112
Ave neighs/atom = 319.34815
Neighbor list builds = 985
Dangerous builds = 0

# Stage 1: nvt_equilibriation
unfix int
restart         0
fix             int all nvt temp 800 800 0.5
run             50000
PPPM initialization ...
  using 12-bit tables for long-range coulomb (../kspace.cpp:339)
  G vector (1/distance) = 0.27814865
  grid = 15 15 15
  stencil order = 5
  estimated absolute RMS force accuracy = 6.1304682e-05
  estimated relative force accuracy = 4.2573746e-06
  using double precision KISS FFT
  3d grid and FFT values/proc = 10648 3375
Per MPI rank memory allocation (min/avg/max) = 4.411 | 4.411 | 4.411 Mbytes
Step Temp E_pair E_mol TotEng Press Lx Ly Lz Fmax CPU CPULeft 
   50000    824.85544   -921.49593            0   -907.20873   -1321.2535    13.311588    13.588916    13.530396    2.3717231            0            0 
   51000    740.79541   -922.54779            0   -909.71657   -1772.9996    13.311588    13.588916    13.530396    3.1809827    1.9602761    96.053577 
   52000    729.36035    -922.3094            0   -909.67625   -731.98879    13.311588    13.588916    13.530396    2.5074721     3.918088    94.034111 
   53000    859.62699   -922.93088            0    -908.0414   -3761.4146    13.311588    13.588916    13.530396      2.15306     5.884069    92.183762 
   54000    768.02399   -920.76393            0   -907.46109   -3191.5799    13.311588    13.588916    13.530396    1.7788263     7.856524    90.350026 
   55000    784.22565   -923.77165            0   -910.18818   -4316.4005    13.311588    13.588916    13.530396    1.6431983     9.829601    88.466409 
   56000    801.92962   -921.11547            0   -907.22536   -1858.2147    13.311588    13.588916    13.530396    2.7578376    11.802167    86.549224 
   57000    799.29521   -921.62699            0   -907.78251   -1603.9144    13.311588    13.588916    13.530396    2.5215863    13.767291    84.570508 
   58000    713.66979    -922.1945            0   -909.83313   -1905.9029    13.311588    13.588916    13.530396    2.8479906    15.732996    82.598229 
   59000    737.52842   -921.67571            0   -908.90109   -3085.5327    13.311588    13.588916    13.530396    2.2540902    17.703927    80.651228 
   60000     826.5426   -921.14523            0    -906.8288    242.48434    13.311588    13.588916    13.530396    2.6880843    19.667818    78.671276 
   61000    781.20589   -923.59155            0   -910.06039   -5200.5741    13.311588    13.588916    13.530396    2.3830003    21.638465    76.718198 
   62000    794.42066   -922.57608            0   -908.81603   -2431.3069    13.311588    13.588916    13.530396    1.9675315    23.610653    74.767071 
   63000    853.40794     -922.392            0   -907.61024   -4524.3902    13.311588    13.588916    13.530396    2.4516322    25.575371    72.791441 
   64000    761.48067   -922.87319            0   -909.68369   -2701.5542    13.311588    13.588916    13.530396    2.5937854    27.546401    70.833605 
   65000    693.95122   -921.15431            0   -909.13448   -3115.9807    13.311588    13.588916    13.530396    3.3222643    29.516925    68.872827 
   66000     760.1923    -920.7649            0   -907.59772    -2005.358    13.311588    13.588916    13.530396    1.8728281    31.488633    66.913347 
   67000    716.65055   -922.24847            0   -909.83546   -1377.4753    13.311588    13.588916    13.530396    2.4880666    33.454874    64.941814 
   68000    656.78493   -922.36244            0   -910.98636   -5557.0238    13.311588    13.588916    13.530396    2.1751186    35.426888    62.981136 
   69000    801.59111   -921.53202            0   -907.64777   -1578.5129    13.311588    13.588916    13.530396    2.4804381    37.385407    60.997243 
   70000    790.94088   -921.94281            0   -908.24303   -1935.5174    13.311588    13.588916    13.530396    3.2068036    39.353901    59.030853 
   71000    766.73201   -923.42999            0   -910.14953   -3253.5138    13.311588    13.588916    13.530396    2.1622036    41.324781    57.067556 
   72000    829.36275    -920.8776            0   -906.51233    439.42065    13.311588    13.588916    13.530396    3.2083135    43.297242    55.105581 
   73000    787.76551   -922.76448            0    -909.1197   -4338.4404    13.311588    13.588916    13.530396    1.8850101    45.263215     53.13508 
   74000    831.25559   -922.79734            0   -908.39928   -5489.9025    13.311588    13.588916    13.530396    1.8146106    47.235925    51.172253 
   75000    925.43706   -921.87316            0   -905.84379   -1546.3394    13.311588    13.588916    13.530396    2.4926292    49.204117    49.204117 
   76000    726.91811   -921.63011            0   -909.03926     284.4524    13.311588    13.588916    13.530396    2.7517054    51.168235    47.232218 
   77000    845.03896   -922.37851            0   -907.74171   -1963.2729    13.311588    13.588916    13.530396    2.4386039     53.14024    45.267612 
   78000    789.42373   -920.00783            0   -906.33434    513.02992    13.311588    13.588916    13.530396    2.1407941    55.101146    43.293758 
   79000    760.62318   -921.54604            0   -908.37139   -385.69024    13.311588    13.588916    13.530396    2.0741408     57.06013    41.319405 
   80000    776.48205     -921.829            0   -908.37967   -1714.1052    13.311588    13.588916    13.530396    2.7047223    59.018214    39.345477 
   81000    821.78299    -920.0834            0   -905.84942   -359.44207    13.311588    13.588916    13.530396    2.6289388    60.989743    37.380811 
   82000    763.90034    -922.5169            0   -909.28549   -4937.9726    13.311588    13.588916    13.530396    2.2400591    62.952001    35.410501 
   83000    802.95709   -922.18936            0   -908.28145   -2495.8221    13.311588    13.588916    13.530396    2.1505533    64.910961     33.43898 
   84000    889.42665   -920.04867            0   -904.64303    515.20095    13.311588    13.588916    13.530396    2.9271565    66.870495    31.468469 
   85000    768.57817   -920.48827            0   -907.17584    1393.9394    13.311588    13.588916    13.530396    3.0376991    68.835261    29.500827 
   86000    756.95135   -922.25201            0   -909.14096   -1887.0248    13.311588    13.588916    13.530396     2.184848    70.806947    27.536035 
   87000    824.18111   -921.97367            0   -907.69814   -2033.0627    13.311588    13.588916    13.530396    1.7680249    72.771536    25.568378 
   88000     826.2526   -921.32999            0   -907.01858   -53.292505    13.311588    13.588916    13.530396    2.7277781    74.743291    23.603145 
   89000    717.02205   -921.96878            0   -909.54934   -2409.9655    13.311588    13.588916    13.530396    2.2506237       76.702    21.633898 
   90000    846.00661    -921.8016            0   -907.14804   -580.75788    13.311588    13.588916    13.530396      2.27252    78.672059    19.668015 
   91000     745.9361   -921.96083            0   -909.04058   -2124.0472    13.311588    13.588916    13.530396    2.7111753    80.644142    17.702373 
   92000     694.0258    -921.4227            0   -909.40158   -5584.1396    13.311588    13.588916    13.530396    2.5118447    82.609083    15.735064 
   93000    850.11773   -922.07262            0   -907.34785    -1399.904    13.311588    13.588916    13.530396    1.8207734     84.57553     13.76811 
   94000    722.71086     -921.038            0   -908.52003    2209.7063    13.311588    13.588916    13.530396    2.5669924    86.540118    11.800925 
   95000    799.63972   -922.04007            0   -908.18962   -1741.7329    13.311588    13.588916    13.530396    2.2353671    88.511348    9.8345943 
   96000    855.69889   -920.76815            0   -905.94671   -749.49539    13.311588    13.588916    13.530396    2.3278951    90.483797    7.8681564 
   97000     721.0388   -921.69366            0   -909.20464   -2253.9145    13.311588    13.588916    13.530396    2.0903521    92.454354    5.9013418 
   98000    835.66668   -921.62494            0   -907.15047   -2452.9016    13.311588    13.588916    13.530396    2.8656288    94.427811    3.9344922 
   99000    871.06544   -921.80478            0   -906.71718    -202.4289    13.311588    13.588916    13.530396    1.6421321    96.389686    1.9671365 
  100000    854.67321   -923.04947            0    -908.2458   -3184.6502    13.311588    13.588916    13.530396    1.9616938    98.356017            0 
Loop time of 98.356 on 1 procs for 50000 steps with 135 atoms

Performance: 43.922 ns/day, 0.546 hours/ns, 508.357 timesteps/s
99.9% CPU use with 1 MPI tasks x no OpenMP threads

MPI task timing breakdown:
Section |  min time  |  avg time  |  max time  |%varavg| %total
---------------------------------------------------------------
Pair    | 67.47      | 67.47      | 67.47      |   0.0 | 68.60
Kspace  | 28.891     | 28.891     | 28.891     |   0.0 | 29.37
Neigh   | 0.80854    | 0.80854    | 0.80854    |   0.0 |  0.82
Comm    | 0.85944    | 0.85944    | 0.85944    |   0.0 |  0.87
Output  | 0.00095677 | 0.00095677 | 0.00095677 |   0.0 |  0.00
Modify  | 0.15618    | 0.15618    | 0.15618    |   0.0 |  0.16
Other   |            | 0.1702     |            |       |  0.17

Nlocal:        135.000 ave         135 max         135 min
Histogram: 1 0 0 0 0 0 0 0 0 0
Nghost:        4008.00 ave        4008 max        4008 min
Histogram: 1 0 0 0 0 0 0 0 0 0
Neighs:        42802.0 ave       42802 max       42802 min
Histogram: 1 0 0 0 0 0 0 0 0 0

Total # of neighbors = 42802
Ave neighs/atom = 317.05185
Neighbor list builds = 726
Dangerous builds = 0

# Stage 2: main_nvt_simulation
unfix int
dump     atom_info all custom 1 short.lammpstrj element x y z q id type vx vy vz
dump_modify     atom_info append yes
dump_modify     atom_info sort id
dump_modify     atom_info element Na O Cl
restart         0
fix             int all nvt temp 800 800 0.5
run             2000
PPPM initialization ...
  using 12-bit tables for long-range coulomb (../kspace.cpp:339)
  G vector (1/distance) = 0.27814865
  grid = 15 15 15
  stencil order = 5
  estimated absolute RMS force accuracy = 6.1304682e-05
  estimated relative force accuracy = 4.2573746e-06
  using double precision KISS FFT
  3d grid and FFT values/proc = 10648 3375
Per MPI rank memory allocation (min/avg/max) = 5.683 | 5.683 | 5.683 Mbytes
Step Temp E_pair E_mol TotEng Press Lx Ly Lz Fmax CPU CPULeft 
  100000    854.67321   -923.04947            0    -908.2458   -3184.6502    13.311588    13.588916    13.530396    1.9616938            0            0 
  101000    771.56934   -921.56041            0   -908.19616   -3836.3262    13.311588    13.588916    13.530396    1.7337762    2.2039769    2.2039769 
  102000    794.90635   -921.61152            0   -907.84306   -5588.8938    13.311588    13.588916    13.530396    2.7962462    4.4098959            0 
Loop time of 4.40991 on 1 procs for 2000 steps with 135 atoms

Performance: 39.185 ns/day, 0.612 hours/ns, 453.524 timesteps/s
99.4% CPU use with 1 MPI tasks x no OpenMP threads

MPI task timing breakdown:
Section |  min time  |  avg time  |  max time  |%varavg| %total
---------------------------------------------------------------
Pair    | 2.6566     | 2.6566     | 2.6566     |   0.0 | 60.24
Kspace  | 1.1469     | 1.1469     | 1.1469     |   0.0 | 26.01
Neigh   | 0.03151    | 0.03151    | 0.03151    |   0.0 |  0.71
Comm    | 0.034562   | 0.034562   | 0.034562   |   0.0 |  0.78
Output  | 0.52587    | 0.52587    | 0.52587    |   0.0 | 11.92
Modify  | 0.0067654  | 0.0067654  | 0.0067654  |   0.0 |  0.15
Other   |            | 0.007658   |            |       |  0.17

Nlocal:        135.000 ave         135 max         135 min
Histogram: 1 0 0 0 0 0 0 0 0 0
Nghost:        4024.00 ave        4024 max        4024 min
Histogram: 1 0 0 0 0 0 0 0 0 0
Neighs:        42824.0 ave       42824 max       42824 min
Histogram: 1 0 0 0 0 0 0 0 0 0

Total # of neighbors = 42824
Ave neighs/atom = 317.21481
Neighbor list builds = 28
Dangerous builds = 0

# Final Commands
variable final_energy equal etotal
print "final_energy: ${final_energy}"
final_energy: -907.843059435386
print "END_OF_COMP"
END_OF_COMP
Total wall time: 0:03:53
