LAMMPS (10 Feb 2021)
# Input written to comply with LAMMPS 2017-08-11 00:00:00

# Atomic Configuration
units           metal
boundary        p p p
box tilt large
atom_style      charge
read_data       na3ocl_3V.lmp
Reading data file ...
  orthogonal box = (0.0000000 0.0000000 0.0000000) to (13.503000 13.503000 13.503000)
  1 by 1 by 1 MPI processor grid
  reading atoms ...
  129 atoms
  read_data CPU = 0.001 seconds

# Potential Setup
pair_style  buck/coul/long 12.0
pair_coeff * * 0.0 1.0 0.0
pair_coeff 1 1    1788.190000  0.159000   0.000000 # Na Na
pair_coeff 1 3    1170.410000  0.315000   0.000000 # Na Cl
pair_coeff 1 2     588.380000  0.338000   0.000000 # Na O
pair_coeff 3 3    1227.200000  0.321000  14.530000 # Cl Cl
pair_coeff 2 3    8286.910000  0.259000  62.200000 # Cl O
pair_coeff 2 2   22764.300000  0.149000  13.190000 # O  O
kspace_style pppm 1e-05

# General Setup
timestep        0.001

# Thermodynamic Information Output
thermo_style custom step temp epair emol etotal press lx ly lz fmax cpu cpuremain
thermo          1000

# Intial Atom Velocity
velocity all create 300 80800 dist gaussian rot yes

# Stage 0: npt_equilibriation
restart         0
fix             int all npt aniso 1.0 1.0 0.1 temp 300 300 0.5
run             50000
PPPM initialization ...
  using 12-bit tables for long-range coulomb (../kspace.cpp:339)
  G vector (1/distance) = 0.27805162
  grid = 15 15 15
  stencil order = 5
  estimated absolute RMS force accuracy = 6.1260485e-05
  estimated relative force accuracy = 4.2543052e-06
  using double precision KISS FFT
  3d grid and FFT values/proc = 10648 3375
Neighbor list info ...
  update every 1 steps, delay 10 steps, check yes
  max neighbors/atom: 2000, page size: 100000
  master list distance cutoff = 14
  ghost atom cutoff = 14
  binsize = 7, bins = 2 2 2
  1 neighbor lists, perpetual/occasional/extra = 1 0 0
  (1) pair buck/coul/long, perpetual
      attributes: half, newton on
      pair build: half/bin/atomonly/newton
      stencil: half/bin/3d/newton
      bin: standard
Per MPI rank memory allocation (min/avg/max) = 4.400 | 4.400 | 4.400 Mbytes
Step Temp E_pair E_mol TotEng Press Lx Ly Lz Fmax CPU CPULeft 
       0          300   -890.25354            0   -885.28996   -22532.147       13.503       13.503       13.503    5.4570963            0            0 
    1000    353.50325     -899.892            0   -894.04319    574.70413    13.303428    13.268522    13.425754     1.814976     2.561897    125.53295 
    2000    293.76092   -901.99667            0    -897.1363   -132.29875    13.238688    13.371188     13.30952      1.22316     5.079648    121.91158 
    3000    273.55548   -901.51036            0    -896.9843    300.60577    13.273022    13.379297    13.215985    1.9394061    7.6044219    119.13594 
    4000     325.0143   -901.05032            0   -895.67286    3308.0102    13.256784    13.341571    13.271397    1.3814724    10.124866    116.43596 
    5000    303.19897   -901.90241            0   -896.88589    2269.4468    13.355777    13.360997    13.161529    1.4666275     12.64604    113.81436 
    6000    265.45635   -901.25163            0   -896.85958    1713.1213    13.194748    13.326256    13.331341    1.8177015    15.169812    111.24529 
    7000     332.2194   -901.49098            0   -895.99431    1371.0442     13.17323    13.400025    13.322092    1.6879781    17.691621     108.6771 
    8000    291.85247   -901.92155            0   -897.09277    3440.5435    13.254142    13.375744    13.199263   0.99982843    20.214805    106.12773 
    9000    264.09437     -901.138            0   -896.76848    3538.6242    13.192179    13.329235    13.277815    1.7419815    22.737094     103.5801 
   10000    284.88978    -901.1086            0   -896.39501    5846.3247    13.140675    13.416729    13.166948    1.8708618    25.260985    101.04394 
   11000    288.41166   -901.19253            0   -896.42068    4351.9863    13.217296    13.126015    13.417055    1.7521491    27.787987    98.521045 
   12000    268.46253   -901.78758            0   -897.34579    2934.3837     13.19523    13.366585    13.254577    1.2697397    30.310167    95.982199 
   13000     319.1208   -901.43992            0   -896.15997    4526.7172    13.245614    13.270927    13.275482    1.3764105    32.830729    93.441308 
   14000     312.4353    -901.6396            0   -896.47026    2391.9362    13.260586    13.216926    13.301248    1.6820952    35.352565    90.906598 
   15000    284.88191   -902.55796            0    -897.8445    2948.6539    13.214515    13.348335    13.200663     1.040558    37.870939    88.365527 
   16000    299.65346   -901.82591            0   -896.86805    2906.8517    13.232605    13.373825    13.174029     1.397333    40.389788    85.828301 
   17000    352.26474   -902.04293            0    -896.2146     2091.968    13.308679    13.315234    13.249639    1.4290719    42.910476    83.296806 
   18000    289.59881    -901.1432            0    -896.3517    398.08568    13.345865    13.125943    13.405504    1.3067744     45.43105    80.766313 
   19000    284.40582    -902.1694            0   -897.46382     1601.323    13.420641    13.154742    13.260095    1.3440099    47.957166    78.245902 
   20000    315.63113   -902.16161            0    -896.9394   -102.08189    13.350734    13.280835    13.236158    1.6596167     50.48466    75.726991 
   21000    302.32804   -901.63983            0   -896.63772    142.50312    13.346903    13.138404    13.348584    1.4820977    53.009651    73.203805 
   22000    302.47101   -901.90704            0   -896.90256     865.7744    13.405975    13.052499    13.372812    1.4934805    55.536014    70.682201 
   23000      286.623   -901.79307            0   -897.05081   -356.69117    13.437485    13.269892    13.185867    1.5127283    58.058468    68.155594 
   24000    288.85024   -901.38197            0   -896.60286   -1034.2264    13.427859    13.240619    13.268385     2.007169    60.582383    65.630915 
   25000    335.07958   -902.72119            0    -897.1772   -481.02456    13.377253    13.207992    13.239313    1.2249644    63.109664    63.109665 
   26000    270.49258   -901.98234            0   -897.50696   -2389.2791    13.358244     13.37216    13.218152    1.3249827    65.636475    60.587516 
   27000    326.60412   -901.64473            0   -896.24097    -3453.581    13.343162     13.36424    13.289167    1.3348718    68.168024    58.069058 
   28000    304.77775   -902.21672            0   -897.17408   -2668.4648    13.369537     13.27154    13.322677    1.4407391    70.694758    55.545882 
   29000    288.07609   -901.66816            0   -896.90185   -5138.0908    13.424841    13.242965    13.367706    1.4609419    73.218938    53.020611 
   30000    318.65708    -901.4112            0   -896.13893   -1459.7119    13.415853    13.193848    13.369741    1.4105125    75.739091    50.492728 
   31000    312.24303   -902.20605            0    -897.0399   -6023.8319    13.367959    13.354527     13.33251    1.0545587    78.261853    47.966942 
   32000     301.6834   -901.91581            0   -896.92437   -3188.0883    13.351748      13.3019    13.333575    1.4579955    80.788417    45.443485 
   33000    347.58931     -901.687            0   -895.93603   -5267.7516    13.441469    13.320297    13.335449     1.594264    83.310172    42.917362 
   34000     294.4735   -902.02168            0   -897.14952   -4956.2364    13.455347    13.235462    13.350131    1.4385747    85.872211    40.410454 
   35000    312.82112   -902.12354            0   -896.94782   -1494.8507    13.384727    13.205228    13.334095    1.1879432    88.385156    37.879353 
   36000    365.49626   -901.64209            0   -895.59484   -5064.8222    13.174039     13.39011     13.46958    1.2295212    90.905638    35.352193 
   37000    297.74702   -902.17825            0   -897.25193   -2653.1277    13.518038    13.265761    13.186695    1.4310829    93.417393    32.822327 
   38000    305.03467   -901.74831            0   -896.70142   -2279.1855    13.241666    13.336482    13.352828    1.2509497    95.929458    30.293513 
   39000    318.48735   -901.42828            0   -896.15881   -3041.3708    13.428866    13.284891    13.281788    1.5814004    98.443153    27.766017 
   40000    276.50705     -902.059            0   -897.48411   -1335.3941    13.339177     13.11977    13.460328    1.3479862    100.95161    25.237902 
   41000    316.18099   -901.85489            0   -896.62358   -2961.8958    13.384128    13.318417    13.281548    1.1553778    103.46188    22.711145 
   42000    325.39562   -901.95318            0   -896.56941   -3754.9357    13.254474    13.351841    13.389197    1.1024339    105.97107    20.184967 
   43000    292.93999   -901.96593            0   -897.11916   -1405.4684    13.361649    13.343677    13.258989    1.3304511    108.48335    17.660079 
   44000    302.86736   -902.73416            0   -897.72313   -725.25194    13.360863    13.267171    13.267826    1.7197068    110.99605    15.135826 
   45000    325.00282   -902.12113            0   -896.74386   -1303.6038    13.387789    13.197386    13.375663    1.7989296    113.50663    12.611848 
   46000    309.31328    -901.7913            0   -896.67362    -837.5074     13.38447    13.239789    13.286874    1.1196533    116.05572    10.091802 
   47000    293.09054   -902.65322            0   -897.80395    1095.3807    13.306968    13.193939    13.261327    1.4077546    118.57072    7.5683438 
   48000    319.02543   -902.54027            0    -897.2619    1288.5567    13.276763    13.208057     13.29377    1.1249714    121.08204    5.0450849 
   49000    298.05683   -901.64868            0   -896.71724    422.22843    13.447356     13.10993    13.355585    2.0697237    123.59059    2.5222569 
   50000     293.5068   -901.65826            0    -896.8021    3890.6565    13.257281    13.378329    13.045799    1.4684549    126.10223            0 
Loop time of 126.102 on 1 procs for 50000 steps with 129 atoms

Performance: 34.258 ns/day, 0.701 hours/ns, 396.504 timesteps/s
99.9% CPU use with 1 MPI tasks x no OpenMP threads

MPI task timing breakdown:
Section |  min time  |  avg time  |  max time  |%varavg| %total
---------------------------------------------------------------
Pair    | 63.67      | 63.67      | 63.67      |   0.0 | 50.49
Kspace  | 29.08      | 29.08      | 29.08      |   0.0 | 23.06
Neigh   | 0.33412    | 0.33412    | 0.33412    |   0.0 |  0.26
Comm    | 0.82458    | 0.82458    | 0.82458    |   0.0 |  0.65
Output  | 0.0009532  | 0.0009532  | 0.0009532  |   0.0 |  0.00
Modify  | 32.004     | 32.004     | 32.004     |   0.0 | 25.38
Other   |            | 0.1894     |            |       |  0.15

Nlocal:        129.000 ave         129 max         129 min
Histogram: 1 0 0 0 0 0 0 0 0 0
Nghost:        3838.00 ave        3838 max        3838 min
Histogram: 1 0 0 0 0 0 0 0 0 0
Neighs:        40643.0 ave       40643 max       40643 min
Histogram: 1 0 0 0 0 0 0 0 0 0

Total # of neighbors = 40643
Ave neighs/atom = 315.06202
Neighbor list builds = 329
Dangerous builds = 0

# Stage 1: nvt_equilibriation
unfix int
restart         0
fix             int all nvt temp 300 300 0.5
run             50000
PPPM initialization ...
  using 12-bit tables for long-range coulomb (../kspace.cpp:339)
  G vector (1/distance) = 0.27900258
  grid = 15 15 15
  stencil order = 5
  estimated absolute RMS force accuracy = 5.8108708e-05
  estimated relative force accuracy = 4.0354264e-06
  using double precision KISS FFT
  3d grid and FFT values/proc = 10648 3375
Per MPI rank memory allocation (min/avg/max) = 4.400 | 4.400 | 4.400 Mbytes
Step Temp E_pair E_mol TotEng Press Lx Ly Lz Fmax CPU CPULeft 
   50000     293.5068   -901.65837            0   -896.80222    3890.1343    13.257281    13.378329    13.045799    1.4684598            0            0 
   51000     291.0251   -902.62555            0   -897.81046     5046.963    13.257281    13.378329    13.045799    1.3559589     1.872565    91.755733 
   52000    318.64988   -903.07728            0   -897.80512    4118.9103    13.257281    13.378329    13.045799   0.98630124     3.743139    89.835337 
   53000    312.89453   -902.32385            0   -897.14691    4504.9698    13.257281    13.378329    13.045799     1.433693    5.6113601    87.911308 
   54000    317.97229   -901.92345            0   -896.66251    5894.3878    13.257281    13.378329    13.045799    1.6367729     7.478364    86.001186 
   55000    274.86227   -902.28353            0   -897.73585    3438.5806    13.257281    13.378329    13.045799    1.6893395    9.3447299    84.102569 
   56000    298.54278   -902.10853            0   -897.16905    4412.9776    13.257281    13.378329    13.045799    1.2633099    11.215496    82.246978 
   57000    321.03023   -902.11961            0   -896.80807     5453.323    13.257281    13.378329    13.045799    1.3353765    13.086445    80.388169 
   58000    260.25883   -901.74496            0    -897.4389    4237.0683    13.257281    13.378329    13.045799    1.3064284    14.956926    78.523862 
   59000    344.90816   -902.36148            0   -896.65487    6188.7108    13.257281    13.378329    13.045799     1.359553    16.820487    76.626663 
   60000    305.84047   -901.82752            0    -896.7673    6095.9479    13.257281    13.378329    13.045799    2.0233685    18.685236    74.740948 
   61000    271.04526   -901.97631            0   -897.49179     3551.755    13.257281    13.378329    13.045799    1.5675995    20.549086    72.855854 
   62000     327.8829   -901.92077            0   -896.49585    4991.6432    13.257281    13.378329    13.045799    1.4463336    22.418522    70.991987 
   63000    312.69854   -901.93009            0    -896.7564     3993.978    13.257281    13.378329    13.045799    1.2404723    24.283204    69.113737 
   64000    285.12655   -902.24254            0   -897.52503    5950.8315    13.257281    13.378329    13.045799    1.3975048    26.150389    67.243857 
   65000    300.84584   -902.75697            0   -897.77939    5060.5173    13.257281    13.378329    13.045799    1.1047304    28.018052    65.375457 
   66000    334.31538   -902.12356            0   -896.59221     5999.157    13.257281    13.378329    13.045799    1.7386276    29.884276    63.504089 
   67000    285.23792   -902.33653            0   -897.61719    5732.7977    13.257281    13.378329    13.045799      1.41252    31.751881    61.636006 
   68000    305.19697   -902.51455            0   -897.46497    5458.7067    13.257281    13.378329    13.045799    1.3635199    33.618131    59.765568 
   69000    311.10833   -901.87693            0   -896.72955    7441.5756    13.257281    13.378329    13.045799    1.3930796    35.484966    57.896525 
   70000    299.87607    -902.1537            0   -897.19216    5911.9807    13.257281    13.378329    13.045799    1.2964758     37.35477    56.032156 
   71000    271.27114   -902.29063            0   -897.80237    5234.9499    13.257281    13.378329    13.045799    1.4806394    39.221153    54.162545 
   72000    321.45151     -901.877            0   -896.55849    6088.9548    13.257281    13.378329    13.045799    1.3682183    41.089491    52.295717 
   73000    316.89189   -902.31162            0   -897.06855    5392.0846    13.257281    13.378329    13.045799    1.3996565    42.957517    50.428391 
   74000    273.15928   -902.15062            0   -897.63112    5529.5885    13.257281    13.378329    13.045799    1.5293039    44.823469    48.558759 
   75000    273.48962   -902.22908            0   -897.70411    5830.0025    13.257281    13.378329    13.045799    1.5597479    46.693001    46.693001 
   76000    305.47863   -901.71525            0   -896.66101    8064.8976    13.257281    13.378329    13.045799    1.4823105    48.557491    44.822299 
   77000    322.88166   -903.16674            0   -897.82457    3699.5194    13.257281    13.378329    13.045799    1.0899167    50.423876    42.953673 
   78000    304.49796    -902.5115            0   -897.47349    4350.3727    13.257281    13.378329    13.045799    1.2362665    52.293937    41.088094 
   79000    310.86025   -901.84833            0   -896.70506    7042.7291    13.257281    13.378329    13.045799    1.5009796    54.161662    39.220515 
   80000    297.42489   -902.05985            0   -897.13886    5212.3479    13.257281    13.378329    13.045799     1.408479    56.031981    37.354655 
   81000    295.07698   -902.68457            0   -897.80243    6086.2447    13.257281    13.378329    13.045799    1.3868358    57.900113    35.487167 
   82000    342.88612   -902.20788            0   -896.53472    5627.8171    13.257281    13.378329    13.045799    1.3098375    59.768324    33.619683 
   83000    315.35878   -902.24229            0   -897.02458    5981.1304    13.257281    13.378329    13.045799    1.3430864    61.638678    31.753259 
   84000    277.68661   -902.23169            0   -897.63728    6647.7753    13.257281    13.378329    13.045799     1.484176    63.506284    29.885311 
   85000    303.55063   -902.73828            0   -897.71594    5398.3723    13.257281    13.378329    13.045799    1.7943691    65.373916    28.017393 
   86000    309.22698   -901.82158            0   -896.70532    4480.6805    13.257281    13.378329    13.045799    1.4916545    67.238477    26.148297 
   87000    297.80984    -902.8495            0   -897.92214    4430.9928    13.257281    13.378329    13.045799    1.3841575    69.106988    24.280834 
   88000    279.29775   -902.18311            0   -897.56204    5456.4167    13.257281    13.378329    13.045799      1.13871    70.977457    22.413934 
   89000    313.43134   -902.13815            0   -896.95234    6702.1342    13.257281    13.378329    13.045799    1.3166815     72.84714     20.54663 
   90000    318.91892   -902.75865            0   -897.48204    3229.7171    13.257281    13.378329    13.045799    1.2375237    74.717078     18.67927 
   91000    273.27675   -902.46133            0   -897.93988    4490.5534    13.257281    13.378329    13.045799    1.3626666    76.585167    16.811378 
   92000    328.97414   -902.21399            0   -896.77101    6380.2397    13.257281    13.378329    13.045799    1.2951798    78.454883    14.943787 
   93000     322.1174    -902.6706            0   -897.34107    4727.3382    13.257281    13.378329    13.045799    1.6460696    80.322736    13.075794 
   94000    314.30809   -902.68424            0   -897.48392     5903.604    13.257281    13.378329    13.045799    1.4205079    82.196907    11.208669 
   95000    312.54885   -902.49128            0   -897.32006    5748.0029    13.257281    13.378329    13.045799    1.3436467    84.064032    9.3404481 
   96000    331.63775   -902.01962            0   -896.53257    4514.1996    13.257281    13.378329    13.045799    1.5966519    85.932415    7.4723839 
   97000     317.2793   -903.02391            0   -897.77443    4536.2156    13.257281    13.378329    13.045799    1.2120868    87.798883    5.6041841 
   98000    308.99619   -902.52845            0   -897.41602    5856.8155    13.257281    13.378329    13.045799    1.1928886    89.664888     3.736037 
   99000    334.39643   -902.07682            0   -896.54413    6667.8249    13.257281    13.378329    13.045799    1.2398915    91.530077    1.8679608 
  100000    284.46333    -902.1653            0   -897.45877    3443.2706    13.257281    13.378329    13.045799    1.3697389    93.393369            0 
Loop time of 93.3934 on 1 procs for 50000 steps with 129 atoms

Performance: 46.256 ns/day, 0.519 hours/ns, 535.370 timesteps/s
99.9% CPU use with 1 MPI tasks x no OpenMP threads

MPI task timing breakdown:
Section |  min time  |  avg time  |  max time  |%varavg| %total
---------------------------------------------------------------
Pair    | 63.867     | 63.867     | 63.867     |   0.0 | 68.38
Kspace  | 28.382     | 28.382     | 28.382     |   0.0 | 30.39
Neigh   | 0.057022   | 0.057022   | 0.057022   |   0.0 |  0.06
Comm    | 0.77932    | 0.77932    | 0.77932    |   0.0 |  0.83
Output  | 0.00087309 | 0.00087309 | 0.00087309 |   0.0 |  0.00
Modify  | 0.14585    | 0.14585    | 0.14585    |   0.0 |  0.16
Other   |            | 0.1621     |            |       |  0.17

Nlocal:        129.000 ave         129 max         129 min
Histogram: 1 0 0 0 0 0 0 0 0 0
Nghost:        3838.00 ave        3838 max        3838 min
Histogram: 1 0 0 0 0 0 0 0 0 0
Neighs:        41374.0 ave       41374 max       41374 min
Histogram: 1 0 0 0 0 0 0 0 0 0

Total # of neighbors = 41374
Ave neighs/atom = 320.72868
Neighbor list builds = 56
Dangerous builds = 0

# Stage 2: main_nvt_simulation
unfix int
dump     atom_info all custom 1 short.lammpstrj element x y z q id type vx vy vz
dump_modify     atom_info append yes
dump_modify     atom_info sort id
dump_modify     atom_info element Na O Cl
restart         0
fix             int all nvt temp 300 300 0.5
run             10000
PPPM initialization ...
  using 12-bit tables for long-range coulomb (../kspace.cpp:339)
  G vector (1/distance) = 0.27900258
  grid = 15 15 15
  stencil order = 5
  estimated absolute RMS force accuracy = 5.8108708e-05
  estimated relative force accuracy = 4.0354264e-06
  using double precision KISS FFT
  3d grid and FFT values/proc = 10648 3375
Per MPI rank memory allocation (min/avg/max) = 5.671 | 5.671 | 5.671 Mbytes
Step Temp E_pair E_mol TotEng Press Lx Ly Lz Fmax CPU CPULeft 
  100000    284.46333    -902.1653            0   -897.45877    3443.2706    13.257281    13.378329    13.045799    1.3697389            0            0 
  101000    288.27377    -902.1452            0   -897.37562     4528.766    13.257281    13.378329    13.045799    1.4662659     2.111577    19.004202 
  102000    304.57079   -902.11297            0   -897.07376    5047.0494    13.257281    13.378329    13.045799    1.3078412    4.2224822    16.889933 
  103000    277.83627   -902.56374            0   -897.96685    5396.8063    13.257281    13.378329    13.045799    1.6046668    6.5383821    15.256227 
  104000    308.62179   -902.42795            0   -897.32171    4886.3573    13.257281    13.378329    13.045799    1.3915969    8.6930981    13.039647 
  105000     285.1196   -901.79717            0   -897.07978    6443.5912    13.257281    13.378329    13.045799    1.4808629     10.81642    10.816421 
  106000    297.42171   -902.76861            0   -897.84768    4581.5426    13.257281    13.378329    13.045799    1.3944385    12.942772    8.6285154 
  107000    356.23545   -902.32954            0   -896.43552    5664.5921    13.257281    13.378329    13.045799    1.7033448    15.098052    6.4705942 
  108000    306.84551   -902.53147            0   -897.45462    6461.0337    13.257281    13.378329    13.045799     1.610863     17.21455    4.3036375 
  109000    295.00335   -902.48723            0   -897.60631    6331.7683    13.257281    13.378329    13.045799    1.2375698    19.330882    2.1478759 
  110000    337.97656   -901.79556            0   -896.20363     6976.714    13.257281    13.378329    13.045799    2.0567589    21.445377            0 
Loop time of 21.4454 on 1 procs for 10000 steps with 129 atoms

Performance: 40.288 ns/day, 0.596 hours/ns, 466.301 timesteps/s
98.7% CPU use with 1 MPI tasks x no OpenMP threads

MPI task timing breakdown:
Section |  min time  |  avg time  |  max time  |%varavg| %total
---------------------------------------------------------------
Pair    | 12.916     | 12.916     | 12.916     |   0.0 | 60.23
Kspace  | 5.7391     | 5.7391     | 5.7391     |   0.0 | 26.76
Neigh   | 0.0082233  | 0.0082233  | 0.0082233  |   0.0 |  0.04
Comm    | 0.15984    | 0.15984    | 0.15984    |   0.0 |  0.75
Output  | 2.5555     | 2.5555     | 2.5555     |   0.0 | 11.92
Modify  | 0.030707   | 0.030707   | 0.030707   |   0.0 |  0.14
Other   |            | 0.03611    |            |       |  0.17

Nlocal:        129.000 ave         129 max         129 min
Histogram: 1 0 0 0 0 0 0 0 0 0
Nghost:        3838.00 ave        3838 max        3838 min
Histogram: 1 0 0 0 0 0 0 0 0 0
Neighs:        41393.0 ave       41393 max       41393 min
Histogram: 1 0 0 0 0 0 0 0 0 0

Total # of neighbors = 41393
Ave neighs/atom = 320.87597
Neighbor list builds = 8
Dangerous builds = 0

# Final Commands
variable final_energy equal etotal
print "final_energy: ${final_energy}"
final_energy: -896.203634510996
print "END_OF_COMP"
END_OF_COMP
Total wall time: 0:04:00
