LAMMPS (10 Feb 2021)
# Input written to comply with LAMMPS 2017-08-11 00:00:00

# Atomic Configuration
units           metal
boundary        p p p
box tilt large
atom_style      charge
read_data       na3ocl_3V.lmp
Reading data file ...
  orthogonal box = (0.0000000 0.0000000 0.0000000) to (13.503000 13.503000 13.503000)
  1 by 1 by 1 MPI processor grid
  reading atoms ...
  129 atoms
  read_data CPU = 0.014 seconds

# Potential Setup
pair_style  buck/coul/long 12.0
pair_coeff * * 0.0 1.0 0.0
pair_coeff 1 1    1788.190000  0.159000   0.000000 # Na Na
pair_coeff 1 3    1170.410000  0.315000   0.000000 # Na Cl
pair_coeff 1 2     588.380000  0.338000   0.000000 # Na O
pair_coeff 3 3    1227.200000  0.321000  14.530000 # Cl Cl
pair_coeff 2 3    8286.910000  0.259000  62.200000 # Cl O
pair_coeff 2 2   22764.300000  0.149000  13.190000 # O  O
kspace_style pppm 1e-05

# General Setup
timestep        0.001

# Thermodynamic Information Output
thermo_style custom step temp epair emol etotal press lx ly lz fmax cpu cpuremain
thermo          1000

# Intial Atom Velocity
velocity all create 300 80800 dist gaussian rot yes

# Stage 0: npt_equilibriation
restart         0
fix             int all npt aniso 1.0 1.0 0.1 temp 300 300 0.5
run             50000
PPPM initialization ...
  using 12-bit tables for long-range coulomb (../kspace.cpp:339)
  G vector (1/distance) = 0.27805162
  grid = 15 15 15
  stencil order = 5
  estimated absolute RMS force accuracy = 6.1260485e-05
  estimated relative force accuracy = 4.2543052e-06
  using double precision KISS FFT
  3d grid and FFT values/proc = 10648 3375
Neighbor list info ...
  update every 1 steps, delay 10 steps, check yes
  max neighbors/atom: 2000, page size: 100000
  master list distance cutoff = 14
  ghost atom cutoff = 14
  binsize = 7, bins = 2 2 2
  1 neighbor lists, perpetual/occasional/extra = 1 0 0
  (1) pair buck/coul/long, perpetual
      attributes: half, newton on
      pair build: half/bin/atomonly/newton
      stencil: half/bin/3d/newton
      bin: standard
Per MPI rank memory allocation (min/avg/max) = 4.400 | 4.400 | 4.400 Mbytes
Step Temp E_pair E_mol TotEng Press Lx Ly Lz Fmax CPU CPULeft 
       0          300   -890.25354            0   -885.28996   -22532.147       13.503       13.503       13.503    5.4570963            0            0 
    1000    353.50325     -899.892            0   -894.04319    574.70413    13.303428    13.268522    13.425754     1.814976    2.5542152    125.15654 
    2000    293.76092   -901.99667            0    -897.1363   -132.29875    13.238688    13.371188     13.30952      1.22316    5.1552091    123.72502 
    3000    273.55548   -901.51036            0    -896.9843    300.60577    13.273022    13.379297    13.215985    1.9394061     7.717371    120.90548 
    4000     325.0143   -901.05032            0   -895.67286    3308.0102    13.256784    13.341571    13.271397    1.3814724    10.274801    118.16026 
    5000    303.19897   -901.90241            0   -896.88589    2269.4468    13.355777    13.360997    13.161529    1.4666275    12.831693    115.48524 
    6000    265.45635   -901.25163            0   -896.85958    1713.1213    13.194748    13.326256    13.331341    1.8177015    15.388938    112.85222 
    7000     332.2194   -901.49098            0   -895.99431    1371.0442     13.17323    13.400025    13.322092    1.6879781    17.945127    110.23436 
    8000    291.85247   -901.92155            0   -897.09277    3440.5435    13.254142    13.375744    13.199263   0.99982843    20.501964    107.63532 
    9000    264.09437     -901.138            0   -896.76848    3538.6242    13.192179    13.329235    13.277815    1.7419815    23.060534    105.05354 
   10000    284.88978    -901.1086            0   -896.39501    5846.3247    13.140675    13.416729    13.166948    1.8708618    25.621344    102.48538 
   11000    288.41166   -901.19253            0   -896.42068    4351.9863    13.217296    13.126015    13.417055    1.7521491    28.178569    99.905839 
   12000    268.46253   -901.78758            0   -897.34579    2934.3837     13.19523    13.366585    13.254577    1.2697397    30.735705    97.329733 
   13000     319.1208   -901.43992            0   -896.15997    4526.7172    13.245614    13.270927    13.275482    1.3764105    33.291521    94.752791 
   14000     312.4353    -901.6396            0   -896.47026    2391.9362    13.260586    13.216926    13.301248    1.6820952    35.848339    92.181446 
   15000    284.88191   -902.55796            0    -897.8445    2948.6539    13.214515    13.348335    13.200663     1.040558     38.40286    89.606674 
   16000    299.65346   -901.82591            0   -896.86805    2906.8517    13.232605    13.373825    13.174029     1.397333    40.956668    87.032922 
   17000    352.26474   -902.04293            0    -896.2146     2091.968    13.308679    13.315234    13.249639    1.4290719    43.511346    84.463201 
   18000    289.59881    -901.1432            0    -896.3517    398.08568    13.345865    13.125943    13.405504    1.3067744     46.06734    81.897495 
   19000    284.40582    -902.1694            0   -897.46382     1601.323    13.420641    13.154742    13.260095    1.3440099    48.628612    79.341421 
   20000    315.63113   -902.16161            0    -896.9394   -102.08189    13.350734    13.280835    13.236158    1.6596167     51.19142     76.78713 
   21000    302.32804   -901.63983            0   -896.63772    142.50312    13.346903    13.138404    13.348584    1.4820977    53.749192    74.225076 
   22000    302.47101   -901.90704            0   -896.90256     865.7744    13.405975    13.052499    13.372812    1.4934805    56.311501    71.669184 
   23000      286.623   -901.79307            0   -897.05081   -356.69117    13.437485    13.269892    13.185867    1.5127283    58.922427    69.169806 
   24000    288.85024   -901.38197            0   -896.60286   -1034.2264    13.427859    13.240619    13.268385     2.007169    61.491825    66.616145 
   25000    335.07958   -902.72119            0    -897.1772   -481.02456    13.377253    13.207992    13.239313    1.2249644    64.062286    64.062287 
   26000    270.49258   -901.98234            0   -897.50696   -2389.2791    13.358244     13.37216    13.218152    1.3249827    66.641468    61.515202 
   27000    326.60412   -901.64473            0   -896.24097    -3453.581    13.343162     13.36424    13.289167    1.3348718    69.217395    58.962967 
   28000    304.77775   -902.21672            0   -897.17408   -2668.4648    13.369537     13.27154    13.322677    1.4407391    71.824229    56.433324 
   29000    288.07609   -901.66816            0   -896.90185   -5138.0908    13.424841    13.242965    13.367706    1.4609419    74.384032      53.8643 
   30000    318.65708    -901.4112            0   -896.13893   -1459.7119    13.415853    13.193848    13.369741    1.4105125    76.939824    51.293216 
   31000    312.24303   -902.20605            0    -897.0399   -6023.8319    13.367959    13.354527     13.33251    1.0545587    79.500063    48.725846 
   32000     301.6834   -901.91581            0   -896.92437   -3188.0883    13.351748      13.3019    13.333575    1.4579955    82.061337    46.159503 
   33000    347.58931     -901.687            0   -895.93603   -5267.7516    13.441469    13.320297    13.335449     1.594264    84.620879    43.592575 
   34000     294.4735   -902.02168            0   -897.14952   -4956.2364    13.455347    13.235462    13.350131    1.4385747    87.180478    41.026108 
   35000    312.82112   -902.12354            0   -896.94782   -1494.8507    13.384727    13.205228    13.334095    1.1879432    89.739312    38.459706 
   36000    365.49626   -901.64209            0   -895.59484   -5064.8222    13.174039     13.39011     13.46958    1.2295212    92.298089    35.893702 
   37000    297.74702   -902.17825            0   -897.25193   -2653.1277    13.518038    13.265761    13.186695    1.4310829    94.861151    33.329594 
   38000    305.03467   -901.74831            0   -896.70142   -2279.1855    13.241666    13.336482    13.352828    1.2509497    97.425051    30.765806 
   39000    318.48735   -901.42828            0   -896.15881   -3041.3708    13.428866    13.284891    13.281788    1.5814004    99.984829     28.20085 
   40000    276.50705     -902.059            0   -897.48411   -1335.3941    13.339177     13.11977    13.460328    1.3479862    102.54466    25.636166 
   41000    316.18099   -901.85489            0   -896.62358   -2961.8958    13.384128    13.318417    13.281548    1.1553778    105.10678    23.072219 
   42000    325.39562   -901.95318            0   -896.56941   -3754.9357    13.254474    13.351841    13.389197    1.1024339    107.66717    20.508032 
   43000    292.93999   -901.96593            0   -897.11916   -1405.4684    13.361649    13.343677    13.258989    1.3304511     110.2274    17.943996 
   44000    302.86736   -902.73416            0   -897.72313   -725.25194    13.360863    13.267171    13.267826    1.7197068    112.78919    15.380344 
   45000    325.00282   -902.12113            0   -896.74386   -1303.6038    13.387789    13.197386    13.375663    1.7989296    115.35127    12.816808 
   46000    309.31328    -901.7913            0   -896.67362    -837.5074     13.38447    13.239789    13.286874    1.1196533     117.9108    10.253113 
   47000    293.09054   -902.65322            0   -897.80395    1095.3807    13.306968    13.193939    13.261327    1.4077546    120.47707    7.6900258 
   48000    319.02543   -902.54027            0    -897.2619    1288.5567    13.276763    13.208057     13.29377    1.1249714    123.09203    5.1288346 
   49000    298.05683   -901.64868            0   -896.71724    422.22843    13.447356     13.10993    13.355585    2.0697237    125.66893     2.564672 
   50000     293.5068   -901.65826            0    -896.8021    3890.6565    13.257281    13.378329    13.045799    1.4684549    128.23253            0 
Loop time of 128.233 on 1 procs for 50000 steps with 129 atoms

Performance: 33.689 ns/day, 0.712 hours/ns, 389.917 timesteps/s
99.9% CPU use with 1 MPI tasks x no OpenMP threads

MPI task timing breakdown:
Section |  min time  |  avg time  |  max time  |%varavg| %total
---------------------------------------------------------------
Pair    | 65.894     | 65.894     | 65.894     |   0.0 | 51.39
Kspace  | 29.153     | 29.153     | 29.153     |   0.0 | 22.73
Neigh   | 0.33561    | 0.33561    | 0.33561    |   0.0 |  0.26
Comm    | 0.81519    | 0.81519    | 0.81519    |   0.0 |  0.64
Output  | 0.001009   | 0.001009   | 0.001009   |   0.0 |  0.00
Modify  | 31.845     | 31.845     | 31.845     |   0.0 | 24.83
Other   |            | 0.1893     |            |       |  0.15

Nlocal:        129.000 ave         129 max         129 min
Histogram: 1 0 0 0 0 0 0 0 0 0
Nghost:        3838.00 ave        3838 max        3838 min
Histogram: 1 0 0 0 0 0 0 0 0 0
Neighs:        40643.0 ave       40643 max       40643 min
Histogram: 1 0 0 0 0 0 0 0 0 0

Total # of neighbors = 40643
Ave neighs/atom = 315.06202
Neighbor list builds = 329
Dangerous builds = 0

# Stage 1: nvt_equilibriation
unfix int
restart         0
fix             int all nvt temp 300 300 0.5
run             50000
PPPM initialization ...
  using 12-bit tables for long-range coulomb (../kspace.cpp:339)
  G vector (1/distance) = 0.27900258
  grid = 15 15 15
  stencil order = 5
  estimated absolute RMS force accuracy = 5.8108708e-05
  estimated relative force accuracy = 4.0354264e-06
  using double precision KISS FFT
  3d grid and FFT values/proc = 10648 3375
Per MPI rank memory allocation (min/avg/max) = 4.400 | 4.400 | 4.400 Mbytes
Step Temp E_pair E_mol TotEng Press Lx Ly Lz Fmax CPU CPULeft 
   50000     293.5068   -901.65837            0   -896.80222    3890.1343    13.257281    13.378329    13.045799    1.4684598            0            0 
   51000     291.0251   -902.62555            0   -897.81046     5046.963    13.257281    13.378329    13.045799    1.3559589     1.946296    95.368503 
   52000    318.64988   -903.07728            0   -897.80512    4118.9103    13.257281    13.378329    13.045799   0.98630124     3.867888    92.829311 
   53000    312.89453   -902.32385            0   -897.14691    4504.9698    13.257281    13.378329    13.045799     1.433693     5.786869    90.660948 
   54000    317.97229   -901.92345            0   -896.66251    5894.3878    13.257281    13.378329    13.045799    1.6367729     7.707093    88.631583 
   55000    274.86227   -902.28353            0   -897.73585    3438.5806    13.257281    13.378329    13.045799    1.6893395      9.62432     86.61888 
   56000    298.54278   -902.10853            0   -897.16905    4412.9776    13.257281    13.378329    13.045799    1.2633099    11.545291    84.665469 
   57000    321.03023   -902.11961            0   -896.80807     5453.323    13.257281    13.378329    13.045799    1.3353765    13.465697    82.717859 
   58000    260.25883   -901.74496            0    -897.4389    4237.0683    13.257281    13.378329    13.045799    1.3064284    15.386286    80.778007 
   59000    344.90816   -902.36148            0   -896.65487    6188.7108    13.257281    13.378329    13.045799     1.359553    17.301614    78.818464 
   60000    305.84047   -901.82752            0    -896.7673    6095.9479    13.257281    13.378329    13.045799    2.0233685     19.21557     76.86228 
   61000    271.04526   -901.97631            0   -897.49179     3551.755    13.257281    13.378329    13.045799    1.5675995    21.131891    74.922162 
   62000     327.8829   -901.92077            0   -896.49585    4991.6432    13.257281    13.378329    13.045799    1.4463336    23.049399    72.989764 
   63000    312.69854   -901.93009            0    -896.7564     3993.978    13.257281    13.378329    13.045799    1.2404723     24.96738    71.061005 
   64000    285.12655   -902.24254            0   -897.52503    5950.8315    13.257281    13.378329    13.045799    1.3975048    26.884285    69.131019 
   65000    300.84584   -902.75697            0   -897.77939    5060.5173    13.257281    13.378329    13.045799    1.1047304    28.802617    67.206109 
   66000    334.31538   -902.12356            0   -896.59221     5999.157    13.257281    13.378329    13.045799    1.7386276    30.720232    65.280495 
   67000    285.23792   -902.33653            0   -897.61719    5732.7977    13.257281    13.378329    13.045799      1.41252    32.637939    63.356002 
   68000    305.19697   -902.51455            0   -897.46497    5458.7067    13.257281    13.378329    13.045799    1.3635199    34.554638     61.43047 
   69000    311.10833   -901.87693            0   -896.72955    7441.5756    13.257281    13.378329    13.045799    1.3930796    36.473675     59.50968 
   70000    299.87607    -902.1537            0   -897.19216    5911.9807    13.257281    13.378329    13.045799    1.2964758    38.394212    57.591318 
   71000    271.27114   -902.29063            0   -897.80237    5234.9499    13.257281    13.378329    13.045799    1.4806394    40.312472    55.669604 
   72000    321.45151     -901.877            0   -896.55849    6088.9548    13.257281    13.378329    13.045799    1.3682183    42.231698    53.749434 
   73000    316.89189   -902.31162            0   -897.06855    5392.0846    13.257281    13.378329    13.045799    1.3996565    44.150571    51.828932 
   74000    273.15928   -902.15062            0   -897.63112    5529.5885    13.257281    13.378329    13.045799    1.5293039    46.069072    49.908162 
   75000    273.48962   -902.22908            0   -897.70411    5830.0025    13.257281    13.378329    13.045799    1.5597479    47.991346    47.991347 
   76000    305.47863   -901.71525            0   -896.66101    8064.8976    13.257281    13.378329    13.045799    1.4823105    49.908684    46.069554 
   77000    322.88166   -903.16674            0   -897.82457    3699.5194    13.257281    13.378329    13.045799    1.0899167    51.928858    44.235696 
   78000    304.49796    -902.5115            0   -897.47349    4350.3727    13.257281    13.378329    13.045799    1.2362665    53.847574    42.308809 
   79000    310.86025   -901.84833            0   -896.70506    7042.7291    13.257281    13.378329    13.045799    1.5009796    55.828497    40.427532 
   80000    297.42489   -902.05985            0   -897.13886    5212.3479    13.257281    13.378329    13.045799     1.408479    57.750517    38.500345 
   81000    295.07698   -902.68457            0   -897.80243    6086.2447    13.257281    13.378329    13.045799    1.3868358     59.66872    36.571152 
   82000    342.88612   -902.20788            0   -896.53472    5627.8171    13.257281    13.378329    13.045799    1.3098375    61.587336    34.642877 
   83000    315.35878   -902.24229            0   -897.02458    5981.1304    13.257281    13.378329    13.045799    1.3430864    63.505254    32.714828 
   84000    277.68661   -902.23169            0   -897.63728    6647.7753    13.257281    13.378329    13.045799     1.484176    65.421156    30.786426 
   85000    303.55063   -902.73828            0   -897.71594    5398.3723    13.257281    13.378329    13.045799    1.7943691    67.340041    28.860018 
   86000    309.22698   -901.82158            0   -896.70532    4480.6805    13.257281    13.378329    13.045799    1.4916545    69.255067    26.932526 
   87000    297.80984    -902.8495            0   -897.92214    4430.9928    13.257281    13.378329    13.045799    1.3841575    71.174179    25.007144 
   88000    279.29775   -902.18311            0   -897.56204    5456.4167    13.257281    13.378329    13.045799      1.13871    73.094274    23.082402 
   89000    313.43134   -902.13815            0   -896.95234    6702.1342    13.257281    13.378329    13.045799    1.3166815    75.013279    21.157592 
   90000    318.91892   -902.75865            0   -897.48204    3229.7171    13.257281    13.378329    13.045799    1.2375237    76.932795    19.233199 
   91000    273.27675   -902.46133            0   -897.93988    4490.5534    13.257281    13.378329    13.045799    1.3626666     78.85299    17.309193 
   92000    328.97414   -902.21399            0   -896.77101    6380.2397    13.257281    13.378329    13.045799    1.2951798    80.773189    15.385369 
   93000     322.1174    -902.6706            0   -897.34107    4727.3382    13.257281    13.378329    13.045799    1.6460696    82.692415    13.461556 
   94000    314.30809   -902.68424            0   -897.48392     5903.604    13.257281    13.378329    13.045799    1.4205079    84.612292     11.53804 
   95000    312.54885   -902.49128            0   -897.32006    5748.0029    13.257281    13.378329    13.045799    1.3436467    86.530207    9.6144675 
   96000    331.63775   -902.01962            0   -896.53257    4514.1996    13.257281    13.378329    13.045799    1.5966519    88.448121     7.691141 
   97000     317.2793   -903.02391            0   -897.77443    4536.2156    13.257281    13.378329    13.045799    1.2120868    90.366413    5.7680689 
   98000    308.99619   -902.52845            0   -897.41602    5856.8155    13.257281    13.378329    13.045799    1.1928886    92.284755    3.8451982 
   99000    334.39643   -902.07682            0   -896.54413    6667.8249    13.257281    13.378329    13.045799    1.2398915    94.199489    1.9224386 
  100000    284.46333    -902.1653            0   -897.45877    3443.2706    13.257281    13.378329    13.045799    1.3697389    96.114181            0 
Loop time of 96.1142 on 1 procs for 50000 steps with 129 atoms

Performance: 44.947 ns/day, 0.534 hours/ns, 520.215 timesteps/s
99.9% CPU use with 1 MPI tasks x no OpenMP threads

MPI task timing breakdown:
Section |  min time  |  avg time  |  max time  |%varavg| %total
---------------------------------------------------------------
Pair    | 66.562     | 66.562     | 66.562     |   0.0 | 69.25
Kspace  | 28.407     | 28.407     | 28.407     |   0.0 | 29.55
Neigh   | 0.058355   | 0.058355   | 0.058355   |   0.0 |  0.06
Comm    | 0.77926    | 0.77926    | 0.77926    |   0.0 |  0.81
Output  | 0.00087428 | 0.00087428 | 0.00087428 |   0.0 |  0.00
Modify  | 0.14603    | 0.14603    | 0.14603    |   0.0 |  0.15
Other   |            | 0.1615     |            |       |  0.17

Nlocal:        129.000 ave         129 max         129 min
Histogram: 1 0 0 0 0 0 0 0 0 0
Nghost:        3838.00 ave        3838 max        3838 min
Histogram: 1 0 0 0 0 0 0 0 0 0
Neighs:        41374.0 ave       41374 max       41374 min
Histogram: 1 0 0 0 0 0 0 0 0 0

Total # of neighbors = 41374
Ave neighs/atom = 320.72868
Neighbor list builds = 56
Dangerous builds = 0

# Stage 2: main_nvt_simulation
unfix int
dump     atom_info all custom 1 short.lammpstrj element x y z q id type vx vy vz
dump_modify     atom_info append yes
dump_modify     atom_info sort id
dump_modify     atom_info element Na O Cl
restart         0
fix             int all nvt temp 300 300 0.5
run             1000
PPPM initialization ...
  using 12-bit tables for long-range coulomb (../kspace.cpp:339)
  G vector (1/distance) = 0.27900258
  grid = 15 15 15
  stencil order = 5
  estimated absolute RMS force accuracy = 5.8108708e-05
  estimated relative force accuracy = 4.0354264e-06
  using double precision KISS FFT
  3d grid and FFT values/proc = 10648 3375
Per MPI rank memory allocation (min/avg/max) = 5.671 | 5.671 | 5.671 Mbytes
Step Temp E_pair E_mol TotEng Press Lx Ly Lz Fmax CPU CPULeft 
  100000    284.46333    -902.1653            0   -897.45877    3443.2706    13.257281    13.378329    13.045799    1.3697389            0            0 
  101000    288.27377    -902.1452            0   -897.37562     4528.766    13.257281    13.378329    13.045799    1.4662659     2.165416            0 
Loop time of 2.16543 on 1 procs for 1000 steps with 129 atoms

Performance: 39.900 ns/day, 0.602 hours/ns, 461.803 timesteps/s
99.5% CPU use with 1 MPI tasks x no OpenMP threads

MPI task timing breakdown:
Section |  min time  |  avg time  |  max time  |%varavg| %total
---------------------------------------------------------------
Pair    | 1.3297     | 1.3297     | 1.3297     |   0.0 | 61.41
Kspace  | 0.56911    | 0.56911    | 0.56911    |   0.0 | 26.28
Neigh   | 0.0020258  | 0.0020258  | 0.0020258  |   0.0 |  0.09
Comm    | 0.01584    | 0.01584    | 0.01584    |   0.0 |  0.73
Output  | 0.2418     | 0.2418     | 0.2418     |   0.0 | 11.17
Modify  | 0.0032172  | 0.0032172  | 0.0032172  |   0.0 |  0.15
Other   |            | 0.003717   |            |       |  0.17

Nlocal:        129.000 ave         129 max         129 min
Histogram: 1 0 0 0 0 0 0 0 0 0
Nghost:        3838.00 ave        3838 max        3838 min
Histogram: 1 0 0 0 0 0 0 0 0 0
Neighs:        41370.0 ave       41370 max       41370 min
Histogram: 1 0 0 0 0 0 0 0 0 0

Total # of neighbors = 41370
Ave neighs/atom = 320.69767
Neighbor list builds = 2
Dangerous builds = 0

# Final Commands
variable final_energy equal etotal
print "final_energy: ${final_energy}"
final_energy: -897.375623248897
print "END_OF_COMP"
END_OF_COMP
Total wall time: 0:03:46
