LAMMPS (10 Feb 2021)
# Input written to comply with LAMMPS 2017-08-11 00:00:00

# Atomic Configuration
units           metal
boundary        p p p
box tilt large
atom_style      charge
read_data       na3ocl.lmp
Reading data file ...
  orthogonal box = (0.0000000 0.0000000 0.0000000) to (13.503000 13.503000 13.503000)
  1 by 1 by 1 MPI processor grid
  reading atoms ...
  135 atoms
  read_data CPU = 0.001 seconds

# Potential Setup
pair_style  buck/coul/long 12.0
pair_coeff * * 0.0 1.0 0.0
pair_coeff 1 1    1788.190000  0.159000   0.000000 # Na Na
pair_coeff 1 3    1170.410000  0.315000   0.000000 # Na Cl
pair_coeff 1 2     588.380000  0.338000   0.000000 # Na O
pair_coeff 3 3    1227.200000  0.321000  14.530000 # Cl Cl
pair_coeff 2 3    8286.910000  0.259000  62.200000 # Cl O
pair_coeff 2 2   22764.300000  0.149000  13.190000 # O  O
kspace_style pppm 1e-05

# General Setup
timestep        0.001

# Thermodynamic Information Output
thermo_style custom step temp epair emol etotal press lx ly lz fmax cpu cpuremain
thermo          1000

# Intial Atom Velocity
velocity all create 300 80800 dist gaussian rot yes

# Stage 0: npt_equilibriation
restart         0
fix             int all npt aniso 1.0 1.0 0.1 temp 300 300 0.5
run             50000
PPPM initialization ...
  using 12-bit tables for long-range coulomb (../kspace.cpp:339)
  G vector (1/distance) = 0.27806613
  grid = 15 15 15
  stencil order = 5
  estimated absolute RMS force accuracy = 6.1564455e-05
  estimated relative force accuracy = 4.2754148e-06
  using double precision KISS FFT
  3d grid and FFT values/proc = 10648 3375
Neighbor list info ...
  update every 1 steps, delay 10 steps, check yes
  max neighbors/atom: 2000, page size: 100000
  master list distance cutoff = 14
  ghost atom cutoff = 14
  binsize = 7, bins = 2 2 2
  1 neighbor lists, perpetual/occasional/extra = 1 0 0
  (1) pair buck/coul/long, perpetual
      attributes: half, newton on
      pair build: half/bin/atomonly/newton
      stencil: half/bin/3d/newton
      bin: standard
Per MPI rank memory allocation (min/avg/max) = 4.411 | 4.411 | 4.411 Mbytes
Step Temp E_pair E_mol TotEng Press Lx Ly Lz Fmax CPU CPULeft 
       0          300    -935.0408            0   -929.84455   -22334.388       13.503       13.503       13.503 2.2762301e-07            0            0 
    1000    219.30426   -932.81223            0   -929.01369   -3483.9081    13.303023     13.35084    13.257205    1.2077127     2.620671    128.41308 
    2000    283.41904   -931.25802            0   -926.34896   -3459.3001    13.342155    13.339296     13.32607    1.4252257    5.2270241    125.44858 
    3000    306.40247   -930.37666            0   -925.06951   -228.50319    13.378664     13.37949    13.211004    1.4599379     7.829608    122.66386 
    4000    288.33195   -931.41494            0   -926.42078    690.55887    13.227556     13.36718    13.266065    1.3041917    10.431008    119.95659 
    5000    282.30384   -931.08772            0   -926.19798    1988.9423    13.215073    13.296383    13.329641    1.5463951    13.033087    117.29779 
    6000    314.71828   -930.93744            0   -925.48625    565.50492    13.327097    13.297871    13.270756    1.4311068    15.637231    114.67303 
    7000    290.73937   -931.36001            0   -926.32415    2840.2998    13.202469    13.339752    13.298425    1.5179735    18.235834    112.02012 
    8000    279.73823   -931.13002            0   -926.28471     1813.067     13.34563    13.233796    13.269585    1.7261054    20.848155    109.45281 
    9000    306.64978   -931.18843            0   -925.87699    996.28233    13.230344    13.357669    13.251215    1.5345315    23.530283    107.19352 
   10000    275.24738   -930.86333            0   -926.09581   -1701.6397    13.172128    13.417748    13.354673    1.4226897    26.154091    104.61636 
   11000    305.67743   -931.09149            0   -925.79689   -2635.9337    13.321108    13.285281    13.365436    1.3432519    28.792239    102.08158 
   12000    332.81725   -931.12366            0   -925.35898   -1611.9255    13.283081     13.29845    13.387345     1.566638    31.426947    99.518669 
   13000    283.00385   -931.40201            0   -926.50014   -637.93145     13.23246    13.262246    13.405623    1.4676392    34.060114    96.940325 
   14000    302.23383   -930.91005            0    -925.6751    1235.7587    13.264021    13.272964    13.310077     1.739867    36.684925    94.332664 
   15000    278.68453    -930.5995            0   -925.77245    3354.1963    13.344494    13.301708    13.163281    1.4495512    39.315368    91.735861 
   16000    280.77257   -931.21613            0    -926.3529    9898.2353    13.203664     13.03108    13.383376    1.1723411    41.946195    89.135667 
   17000    353.30787   -931.58364            0   -925.46404    5186.9253    13.212008    13.276526    13.235513     1.332814     44.57115     86.52047 
   18000    309.00576   -931.69163            0   -926.33939     4022.935    13.325219    13.154437     13.28545    1.2041041    47.206047    83.921863 
   19000    287.33101   -931.70593            0   -926.72911    2049.1066    13.293104    13.227056    13.274729    1.3148335    49.836316    81.311884 
   20000    286.84182    -930.6875            0   -925.71916    366.22197    13.318292     13.33658     13.24444    1.8122205    52.469475    78.704213 
   21000      291.421     -930.815            0   -925.76734   -2448.8119    13.258419    13.279376    13.428228    1.4002614    55.092472    76.080082 
   22000    266.12717   -931.21205            0    -926.6025   -3398.8055    13.391457    13.322057    13.275201    1.4938377    57.722812    73.465399 
   23000     309.6409   -931.36569            0   -926.00245   -955.06544    13.326138    13.385297    13.195406    1.3637596    60.350318    70.846027 
   24000     280.1909   -930.74358            0   -925.89043    504.25636    13.345691    13.258654     13.27475    1.3554963    62.979667    68.227974 
   25000    287.88673   -931.50539            0   -926.51895    1357.6119    13.286241    13.398251    13.147905    1.2995434    65.611951    65.611952 
   26000    300.39116   -931.47781            0   -926.27478    4037.4726    13.116583    13.297973    13.330462    1.3624943    68.248856    62.998945 
   27000    300.77629   -930.78697            0   -925.57726    527.85833    13.287653    13.217212    13.409412    1.4760433    70.877025    60.376725 
   28000    303.36251   -931.59408            0   -926.33958    568.18956    13.391006    13.289683    13.164178    1.1264383    73.507836    57.756158 
   29000    274.18032    -931.5024            0   -926.75336     1841.756    13.194081    13.505045    13.142872    1.1473322    76.138862    55.135038 
   30000    291.28579   -930.98475            0   -925.93943   -270.40101    13.325143    13.217502    13.356053    1.7586275    78.769122    52.512749 
   31000    305.83562   -930.98778            0   -925.69045    -2612.411    13.372186    13.238224    13.406109    1.7557093    81.397208    49.888612 
   32000    286.69087   -931.56888            0   -926.60315   -4049.7535    13.414093    13.284408    13.309088    1.3494454    84.020271    47.261403 
   33000    275.68805   -930.45504            0   -925.67989   -2947.1927    13.392244    13.316737    13.325784    1.2588619    86.650408    44.638089 
   34000    322.82963   -931.58805            0   -925.99636   -180.04549    13.307788    13.236704    13.386429   0.96028462    89.277993    42.013173 
   35000    267.31567   -931.52796            0   -926.89783     2670.979    13.348292    13.310588     13.15384    1.2844121    91.904685    39.387723 
   36000     324.5339   -931.18946            0   -925.56825    4045.7999    13.299982    13.204366     13.28707    1.6085353    94.533438    36.763004 
   37000    294.06512   -931.09206            0    -925.9986    3404.4547     13.18645    13.327384    13.272189    1.7629599    97.160951    34.137631 
   38000    290.37189    -931.8407            0   -926.81121    1533.2007    13.326193    13.247484    13.235956    1.2038352    99.789709     31.51254 
   39000    318.33101   -931.52121            0   -926.00745    3960.4733    13.232099    13.277116     13.28902    1.6562323    102.42074    28.887901 
   40000    310.01121   -931.13188            0   -925.76222    720.04906    13.316018    13.301552    13.229373     1.496979    105.06217    26.265542 
   41000     295.3802   -930.96095            0   -925.84471   -1069.1746    13.292084    13.332968    13.276545    1.3546031    107.69493    23.640351 
   42000    275.20497   -931.52045            0   -926.75366   -755.73451    13.257024    13.319317    13.339597    1.4093727    110.32616    21.014508 
   43000    320.35965   -930.92395            0   -925.37504     -2909.76    13.270251    13.322848    13.407278      1.55863    112.95881    18.388643 
   44000    278.13118   -930.81197            0    -925.9945    489.58806    13.292911    13.275721    13.309349    1.2260617    115.58736    15.761913 
   45000    303.93862   -931.77732            0   -926.51285    2514.3833    13.248811    13.268183    13.287052     1.431276    118.21747    13.135275 
   46000    289.84926   -931.49372            0   -926.47328    1212.4559    13.198517    13.336841    13.294994    1.1346176    120.84895    10.508605 
   47000    305.95671   -930.70301            0   -925.40358   -2284.0336    13.334301    13.344923    13.319668    1.4172972    123.47987    7.8816941 
   48000    267.31273   -931.06644            0   -926.43636   -5611.9035    13.458836    13.354627    13.269061    1.2768442    126.10706    5.2544608 
   49000    280.38963     -931.229            0   -926.37241    -2156.706    13.324029    13.312714    13.303495    1.2956395    128.73443    2.6272332 
   50000    300.60101   -931.08819            0   -925.88152   -1178.4874    13.273352    13.323447    13.348865    1.3607604    131.36421            0 
Loop time of 131.364 on 1 procs for 50000 steps with 135 atoms

Performance: 32.886 ns/day, 0.730 hours/ns, 380.621 timesteps/s
99.9% CPU use with 1 MPI tasks x no OpenMP threads

MPI task timing breakdown:
Section |  min time  |  avg time  |  max time  |%varavg| %total
---------------------------------------------------------------
Pair    | 69.03      | 69.03      | 69.03      |   0.0 | 52.55
Kspace  | 29.212     | 29.212     | 29.212     |   0.0 | 22.24
Neigh   | 0.26768    | 0.26768    | 0.26768    |   0.0 |  0.20
Comm    | 0.85751    | 0.85751    | 0.85751    |   0.0 |  0.65
Output  | 0.0009985  | 0.0009985  | 0.0009985  |   0.0 |  0.00
Modify  | 31.797     | 31.797     | 31.797     |   0.0 | 24.21
Other   |            | 0.1989     |            |       |  0.15

Nlocal:        135.000 ave         135 max         135 min
Histogram: 1 0 0 0 0 0 0 0 0 0
Nghost:        4024.00 ave        4024 max        4024 min
Histogram: 1 0 0 0 0 0 0 0 0 0
Neighs:        44322.0 ave       44322 max       44322 min
Histogram: 1 0 0 0 0 0 0 0 0 0

Total # of neighbors = 44322
Ave neighs/atom = 328.31111
Neighbor list builds = 238
Dangerous builds = 0

# Stage 1: nvt_equilibriation
unfix int
restart         0
fix             int all nvt temp 300 300 0.5
run             50000
PPPM initialization ...
  using 12-bit tables for long-range coulomb (../kspace.cpp:339)
  G vector (1/distance) = 0.27872205
  grid = 15 15 15
  stencil order = 5
  estimated absolute RMS force accuracy = 5.9344823e-05
  estimated relative force accuracy = 4.1212699e-06
  using double precision KISS FFT
  3d grid and FFT values/proc = 10648 3375
Per MPI rank memory allocation (min/avg/max) = 4.411 | 4.411 | 4.411 Mbytes
Step Temp E_pair E_mol TotEng Press Lx Ly Lz Fmax CPU CPULeft 
   50000    300.60101   -931.08832            0   -925.88165   -1179.1333    13.273352    13.323447    13.348865    1.3607636            0            0 
   51000    318.76624   -931.46477            0   -925.94346   -1154.8297    13.273352    13.323447    13.348865    1.5130155    1.9589438    95.988248 
   52000    313.81494   -931.53887            0   -926.10332   -2206.4186    13.273352    13.323447    13.348865    1.6411728    3.9177449    94.025877 
   53000       305.01   -930.75439            0   -925.47136   -341.04919    13.273352    13.323447    13.348865    1.3083947     5.889374     92.26686 
   54000    295.65052    -930.9706            0   -925.84968   -737.01353    13.273352    13.323447    13.348865    1.6008661     7.848841    90.261682 
   55000    301.85823   -931.61705            0   -926.38861    -1928.879    13.273352    13.323447    13.348865    1.2843762     9.806891    88.262019 
   56000    311.83094   -930.82901            0   -925.42783   -794.85571    13.273352    13.323447    13.348865    1.6134594    11.766113    86.284829 
   57000    302.72333   -930.99294            0   -925.74951   -1227.0387    13.273352    13.323447    13.348865    1.7154285    13.724568     84.30806 
   58000     304.5897   -931.59294            0   -926.31719   -1866.3665    13.273352    13.323447    13.348865    1.3659364    15.681332    82.326997 
   59000    268.66811   -931.24561            0   -926.59205   -1909.5811    13.273352    13.323447    13.348865    1.4244512    17.640036    80.360168 
   60000    306.46457   -930.71538            0   -925.40715   -1391.8407    13.273352    13.323447    13.348865    1.2538279    19.607749       78.431 
   61000    290.83216   -931.43007            0   -926.39261   -1938.0787    13.273352    13.323447    13.348865    1.1288731    21.575876    76.496288 
   62000    284.70901   -931.44013            0   -926.50873   -1568.1328    13.273352    13.323447    13.348865    1.2287401    23.542518    74.551307 
   63000    318.27854   -931.19029            0   -925.67743   -1330.5647    13.273352    13.323447    13.348865     1.297438    25.510011    72.605416 
   64000     272.0708   -930.64489            0   -925.93239   -413.46107    13.273352    13.323447    13.348865    1.2836131    27.481352    70.666333 
   65000    291.52745   -931.66911            0    -926.6196   -1597.7448    13.273352    13.323447    13.348865    1.3089623     29.44862    68.713446 
   66000     321.2467   -931.17988            0   -925.61561   -341.63483    13.273352    13.323447    13.348865    1.5145946    31.417879    66.762993 
   67000    289.33336   -931.08505            0   -926.07354   -1051.7354    13.273352    13.323447    13.348865    1.4626161    33.383054    64.802401 
   68000    222.17921   -931.19657            0   -927.34823   -1564.3579    13.273352    13.323447    13.348865    1.6331677    35.349004    62.842676 
   69000    288.10251   -931.31723            0   -926.32705   -1183.0452    13.273352    13.323447    13.348865    1.5049562    37.314869    60.882156 
   70000    303.73597   -930.87475            0   -925.61379   -900.93807    13.273352    13.323447    13.348865    1.8059553    39.280235    58.920354 
   71000    289.26003   -930.94905            0   -925.93882   -700.05241    13.273352    13.323447    13.348865    1.4035729    41.249448    56.963525 
   72000    275.33287   -931.34325            0   -926.57424   -1946.1973    13.273352    13.323447    13.348865    1.5083925    43.215273    55.001258 
   73000    307.69465   -930.82366            0   -925.49413   -484.61116    13.273352    13.323447    13.348865    1.6229922    45.183095    53.041026 
   74000    310.45397    -931.4425            0   -926.06517    -1301.094    13.273352    13.323447    13.348865     1.250541    47.147734    51.076713 
   75000     269.5938   -931.21461            0   -926.54501   -800.24297    13.273352    13.323447    13.348865     1.301915     49.11199    49.111991 
   76000     300.7009   -930.50645            0   -925.29806   -157.30204    13.273352    13.323447    13.348865    1.3452948    51.076363    47.147413 
   77000    308.45097   -931.61666            0   -926.27402   -2221.8948    13.273352    13.323447    13.348865    1.5075646    53.041866    45.183813 
   78000    314.62312   -931.72696            0   -926.27741   -1158.3993    13.273352    13.323447    13.348865    1.4093585    55.005634    43.218713 
   79000     281.5868   -930.56905            0   -925.69172   -1175.9209    13.273352    13.323447    13.348865    2.5434059    56.971402    41.255154 
   80000    326.61704   -931.63219            0    -925.9749   -1837.8672    13.273352    13.323447    13.348865    1.7000409     58.93581    39.290541 
   81000    292.08608   -931.59374            0   -926.53456   -1483.7172    13.273352    13.323447    13.348865    1.2572889    60.896156    37.323451 
   82000    323.31888   -930.97246            0    -925.3723    648.87345    13.273352    13.323447    13.348865    2.0583439    62.857964    35.357605 
   83000    299.35689   -931.11984            0   -925.93473   -894.41887    13.273352    13.323447    13.348865    1.0795893    64.821064     33.39267 
   84000    292.33144    -931.0948            0   -926.03137   -660.74896    13.273352    13.323447    13.348865    1.2435693    66.782476    31.427048 
   85000    290.34787    -930.7414            0   -925.71233    370.78169    13.273352    13.323447    13.348865    1.4736542    68.746445    29.462762 
   86000    323.29363   -930.76852            0   -925.16879    52.714857    13.273352    13.323447    13.348865    1.3019145    70.713417    27.499663 
   87000    278.83323   -931.23462            0   -926.40499   -888.03913    13.273352    13.323447    13.348865    1.2654321    72.672763    25.533674 
   88000    339.38943   -931.57161            0    -925.6931   -751.00096    13.273352    13.323447    13.348865    1.3306513    74.637062    23.569599 
   89000    356.86398   -930.73922            0   -924.55803   -1220.9706    13.273352    13.323447    13.348865    2.4465223     76.60672    21.607024 
   90000     276.9347   -931.06822            0   -926.27148   -1057.4009    13.273352    13.323447    13.348865    1.1792643    78.579972    19.644993 
   91000    306.30744   -931.50604            0   -926.20053   -901.07106    13.273352    13.323447    13.348865    1.4165799    80.546003     17.68083 
   92000    341.60726   -931.25366            0   -925.33672    -2075.957    13.273352    13.323447    13.348865     1.386996    82.512183    15.716606 
   93000    287.51599   -931.67297            0   -926.69295   -2131.5832    13.273352    13.323447    13.348865    1.2600253    84.478633    13.752336 
   94000    312.02748   -931.48887            0   -926.08429   -1548.8271    13.273352    13.323447    13.348865    1.3798133    86.445416    11.788011 
   95000    330.72639   -931.22344            0   -925.49497   -1541.9716    13.273352    13.323447    13.348865     1.328649    88.414212    9.8238014 
   96000     258.0417   -931.28704            0   -926.81754   -1880.4078    13.273352    13.323447    13.348865    1.5146664    90.378905    7.8590353 
   97000    286.70251   -930.96847            0   -926.00253   -1965.6727    13.273352    13.323447    13.348865    1.3112275    92.343967    5.8942958 
   98000    301.73516   -931.02971            0    -925.8034   -1646.7265    13.273352    13.323447    13.348865    1.8434721    94.309857    3.9295774 
   99000    268.79237   -931.56035            0   -926.90464   -2685.5997    13.273352    13.323447    13.348865    1.2530118    96.274642    1.9647886 
  100000    278.19509   -931.12323            0   -926.30465   -2285.3982    13.273352    13.323447    13.348865    1.4003072    98.239121            0 
Loop time of 98.2391 on 1 procs for 50000 steps with 135 atoms

Performance: 43.974 ns/day, 0.546 hours/ns, 508.962 timesteps/s
99.9% CPU use with 1 MPI tasks x no OpenMP threads

MPI task timing breakdown:
Section |  min time  |  avg time  |  max time  |%varavg| %total
---------------------------------------------------------------
Pair    | 68.41      | 68.41      | 68.41      |   0.0 | 69.64
Kspace  | 28.653     | 28.653     | 28.653     |   0.0 | 29.17
Neigh   | 0.023544   | 0.023544   | 0.023544   |   0.0 |  0.02
Comm    | 0.82661    | 0.82661    | 0.82661    |   0.0 |  0.84
Output  | 0.00090528 | 0.00090528 | 0.00090528 |   0.0 |  0.00
Modify  | 0.15273    | 0.15273    | 0.15273    |   0.0 |  0.16
Other   |            | 0.172      |            |       |  0.18

Nlocal:        135.000 ave         135 max         135 min
Histogram: 1 0 0 0 0 0 0 0 0 0
Nghost:        4024.00 ave        4024 max        4024 min
Histogram: 1 0 0 0 0 0 0 0 0 0
Neighs:        44269.0 ave       44269 max       44269 min
Histogram: 1 0 0 0 0 0 0 0 0 0

Total # of neighbors = 44269
Ave neighs/atom = 327.91852
Neighbor list builds = 21
Dangerous builds = 0

# Stage 2: main_nvt_simulation
unfix int
dump     atom_info all custom 1 short.lammpstrj element x y z q id type vx vy vz
dump_modify     atom_info append yes
dump_modify     atom_info sort id
dump_modify     atom_info element Na O Cl
restart         0
fix             int all nvt temp 300 300 0.5
run             2000
PPPM initialization ...
  using 12-bit tables for long-range coulomb (../kspace.cpp:339)
  G vector (1/distance) = 0.27872205
  grid = 15 15 15
  stencil order = 5
  estimated absolute RMS force accuracy = 5.9344823e-05
  estimated relative force accuracy = 4.1212699e-06
  using double precision KISS FFT
  3d grid and FFT values/proc = 10648 3375
Per MPI rank memory allocation (min/avg/max) = 5.683 | 5.683 | 5.683 Mbytes
Step Temp E_pair E_mol TotEng Press Lx Ly Lz Fmax CPU CPULeft 
  100000    278.19509   -931.12323            0   -926.30465   -2285.3982    13.273352    13.323447    13.348865    1.4003072            0            0 
  101000    297.47118   -930.45321            0   -925.30075   -1132.3763    13.273352    13.323447    13.348865    1.5508304     2.211951     2.211952 
  102000    307.56638   -930.77942            0    -925.4521   -1392.5479    13.273352    13.323447    13.348865    1.5296624    4.4233041            0 
Loop time of 4.42332 on 1 procs for 2000 steps with 135 atoms

Performance: 39.066 ns/day, 0.614 hours/ns, 452.150 timesteps/s
99.4% CPU use with 1 MPI tasks x no OpenMP threads

MPI task timing breakdown:
Section |  min time  |  avg time  |  max time  |%varavg| %total
---------------------------------------------------------------
Pair    | 2.7261     | 2.7261     | 2.7261     |   0.0 | 61.63
Kspace  | 1.1398     | 1.1398     | 1.1398     |   0.0 | 25.77
Neigh   | 0.0011408  | 0.0011408  | 0.0011408  |   0.0 |  0.03
Comm    | 0.033154   | 0.033154   | 0.033154   |   0.0 |  0.75
Output  | 0.50899    | 0.50899    | 0.50899    |   0.0 | 11.51
Modify  | 0.0063243  | 0.0063243  | 0.0063243  |   0.0 |  0.14
Other   |            | 0.007768   |            |       |  0.18

Nlocal:        135.000 ave         135 max         135 min
Histogram: 1 0 0 0 0 0 0 0 0 0
Nghost:        4024.00 ave        4024 max        4024 min
Histogram: 1 0 0 0 0 0 0 0 0 0
Neighs:        44291.0 ave       44291 max       44291 min
Histogram: 1 0 0 0 0 0 0 0 0 0

Total # of neighbors = 44291
Ave neighs/atom = 328.08148
Neighbor list builds = 1
Dangerous builds = 0

# Final Commands
variable final_energy equal etotal
print "final_energy: ${final_energy}"
final_energy: -925.452103226039
print "END_OF_COMP"
END_OF_COMP
Total wall time: 0:03:54
