LAMMPS (10 Feb 2021)
# Input written to comply with LAMMPS 2017-08-11 00:00:00

# Atomic Configuration
units           metal
boundary        p p p
box tilt large
atom_style      charge
read_data       na3ocl.lmp
Reading data file ...
  orthogonal box = (0.0000000 0.0000000 0.0000000) to (13.503000 13.503000 13.503000)
  1 by 1 by 1 MPI processor grid
  reading atoms ...
  135 atoms
  read_data CPU = 0.001 seconds

# Potential Setup
pair_style  buck/coul/long 12.0
pair_coeff * * 0.0 1.0 0.0
pair_coeff 1 1    1788.190000  0.159000   0.000000 # Na Na
pair_coeff 1 3    1170.410000  0.315000   0.000000 # Na Cl
pair_coeff 1 2     588.380000  0.338000   0.000000 # Na O
pair_coeff 3 3    1227.200000  0.321000  14.530000 # Cl Cl
pair_coeff 2 3    8286.910000  0.259000  62.200000 # Cl O
pair_coeff 2 2   22764.300000  0.149000  13.190000 # O  O
kspace_style pppm 1e-05

# General Setup
timestep        0.001

# Thermodynamic Information Output
thermo_style custom step temp epair emol etotal press lx ly lz fmax cpu cpuremain
thermo          1000

# Intial Atom Velocity
velocity all create 300 80800 dist gaussian rot yes

# Stage 0: npt_equilibriation
restart         0
fix             int all npt aniso 1.0 1.0 0.1 temp 300 300 0.5
run             50000
PPPM initialization ...
  using 12-bit tables for long-range coulomb (../kspace.cpp:339)
  G vector (1/distance) = 0.27806613
  grid = 15 15 15
  stencil order = 5
  estimated absolute RMS force accuracy = 6.1564455e-05
  estimated relative force accuracy = 4.2754148e-06
  using double precision KISS FFT
  3d grid and FFT values/proc = 10648 3375
Neighbor list info ...
  update every 1 steps, delay 10 steps, check yes
  max neighbors/atom: 2000, page size: 100000
  master list distance cutoff = 14
  ghost atom cutoff = 14
  binsize = 7, bins = 2 2 2
  1 neighbor lists, perpetual/occasional/extra = 1 0 0
  (1) pair buck/coul/long, perpetual
      attributes: half, newton on
      pair build: half/bin/atomonly/newton
      stencil: half/bin/3d/newton
      bin: standard
Per MPI rank memory allocation (min/avg/max) = 4.411 | 4.411 | 4.411 Mbytes
Step Temp E_pair E_mol TotEng Press Lx Ly Lz Fmax CPU CPULeft 
       0          300    -935.0408            0   -929.84455   -22334.388       13.503       13.503       13.503 2.2762301e-07            0            0 
    1000    219.30426   -932.81223            0   -929.01369   -3483.9081    13.303023     13.35084    13.257205    1.2077127     2.672302     130.9428 
    2000    283.41904   -931.25802            0   -926.34896   -3459.3001    13.342155    13.339296     13.32607    1.4252257     5.289403    126.94567 
    3000    306.40247   -930.37666            0   -925.06951   -228.50319    13.378664     13.37949    13.211004    1.4599379    7.9044709    123.83673 
    4000    288.33195   -931.41494            0   -926.42078    690.55887    13.227556     13.36718    13.266065    1.3041917    10.519498    120.97424 
    5000    282.30384   -931.08772            0   -926.19798    1988.9423    13.215073    13.296383    13.329641    1.5463951    13.146672    118.32006 
    6000    314.71828   -930.93744            0   -925.48625    565.50492    13.327097    13.297871    13.270756    1.4311068    15.767962    115.63173 
    7000    290.73937   -931.36001            0   -926.32415    2840.2998    13.202469    13.339752    13.298425    1.5179735     18.39909    113.02299 
    8000    279.73823   -931.13002            0   -926.28471     1813.067     13.34563    13.233796    13.269585    1.7261054    21.014238    110.32476 
    9000    306.64978   -931.18843            0   -925.87699    996.28233    13.230344    13.357669    13.251215    1.5345315    23.658948    107.77966 
   10000    275.24738   -930.86333            0   -926.09581   -1701.6397    13.172128    13.417748    13.354673    1.4226897    26.311813    105.24726 
   11000    305.67743   -931.09149            0   -925.79689   -2635.9337    13.321108    13.285281    13.365436    1.3432519    28.977245    102.73751 
   12000    332.81725   -931.12366            0   -925.35898   -1611.9255    13.283081     13.29845    13.387345     1.566638    31.626305    100.14997 
   13000    283.00385   -931.40201            0   -926.50014   -637.93145     13.23246    13.262246    13.405623    1.4676392    34.293305    97.604024 
   14000    302.23383   -930.91005            0    -925.6751    1235.7587    13.264021    13.272964    13.310077     1.739867     36.94555    95.002843 
   15000    278.68453    -930.5995            0   -925.77245    3354.1963    13.344494    13.301708    13.163281    1.4495512    39.608974    92.420942 
   16000    280.77257   -931.21613            0    -926.3529    9898.2353    13.203664     13.03108    13.383376    1.1723411    42.266862    89.817084 
   17000    353.30787   -931.58364            0   -925.46404    5186.9253    13.212008    13.276526    13.235513     1.332814    44.910793    87.179777 
   18000    309.00576   -931.69163            0   -926.33939     4022.935    13.325219    13.154437     13.28545    1.2041041     47.57118    84.570986 
   19000    287.33101   -931.70593            0   -926.72911    2049.1066    13.293104    13.227056    13.274729    1.3148335    50.222149    81.941401 
   20000    286.84182    -930.6875            0   -925.71916    366.22197    13.318292     13.33658     13.24444    1.8122205    52.876302    79.314454 
   21000      291.421     -930.815            0   -925.76734   -2448.8119    13.258419    13.279376    13.428228    1.4002614    55.525708    76.678359 
   22000    266.12717   -931.21205            0    -926.6025   -3398.8055    13.391457    13.322057    13.275201    1.4938377    58.206473    74.080967 
   23000     309.6409   -931.36569            0   -926.00245   -955.06544    13.326138    13.385297    13.195406    1.3637596    60.870411     71.45657 
   24000     280.1909   -930.74358            0   -925.89043    504.25636    13.345691    13.258654     13.27475    1.3554963    63.516185    68.809201 
   25000    287.88673   -931.50539            0   -926.51895    1357.6119    13.286241    13.398251    13.147905    1.2995434    66.166042    66.166042 
   26000    300.39116   -931.47781            0   -926.27478    4037.4726    13.116583    13.297973    13.330462    1.3624943    68.824245    63.530072 
   27000    300.77629   -930.78697            0   -925.57726    527.85833    13.287653    13.217212    13.409412    1.4760433    71.469949    60.881809 
   28000    303.36251   -931.59408            0   -926.33958    568.18956    13.391006    13.289683    13.164178    1.1264383    74.116986    58.234775 
   29000    274.18032    -931.5024            0   -926.75336     1841.756    13.194081    13.505045    13.142872    1.1473322    76.773167    55.594362 
   30000    291.28579   -930.98475            0   -925.93943   -270.40101    13.325143    13.217502    13.356053    1.7586275    79.437279    52.958187 
   31000    305.83562   -930.98778            0   -925.69045    -2612.411    13.372186    13.238224    13.406109    1.7557093    82.120238    50.331759 
   32000    286.69087   -931.56888            0   -926.60315   -4049.7535    13.414093    13.284408    13.309088    1.3494454    84.762585    47.678955 
   33000    275.68805   -930.45504            0   -925.67989   -2947.1927    13.392244    13.316737    13.325784    1.2588619    87.422203     45.03568 
   34000    322.82963   -931.58805            0   -925.99636   -180.04549    13.307788    13.236704    13.386429   0.96028462    90.076832    42.389097 
   35000    267.31567   -931.52796            0   -926.89783     2670.979    13.348292    13.310588     13.15384    1.2844121    92.740136    39.745773 
   36000     324.5339   -931.18946            0   -925.56825    4045.7999    13.299982    13.204366     13.28707    1.6085353    95.384963    37.094153 
   37000    294.06512   -931.09206            0    -925.9986    3404.4547     13.18645    13.327384    13.272189    1.7629599    98.047474    34.449112 
   38000    290.37189    -931.8407            0   -926.81121    1533.2007    13.326193    13.247484    13.235956    1.2038352    100.71821     31.80575 
   39000    318.33101   -931.52121            0   -926.00745    3960.4733    13.232099    13.277116     13.28902    1.6562323    103.38123    29.158808 
   40000    310.01121   -931.13188            0   -925.76222    720.04906    13.316018    13.301552    13.229373     1.496979    106.03453    26.508634 
   41000     295.3802   -930.96095            0   -925.84471   -1069.1746    13.292084    13.332968    13.276545    1.3546031    108.70082    23.861155 
   42000    275.20497   -931.52045            0   -926.75366   -755.73451    13.257024    13.319317    13.339597    1.4093727    111.37501    21.214288 
   43000    320.35965   -930.92395            0   -925.37504     -2909.76    13.270251    13.322848    13.407278      1.55863    114.03085    18.563162 
   44000    278.13118   -930.81197            0    -925.9945    489.58806    13.292911    13.275721    13.309349    1.2260617    116.68296    15.911312 
   45000    303.93862   -931.77732            0   -926.51285    2514.3833    13.248811    13.268183    13.287052     1.431276    119.33219    13.259132 
   46000    289.84926   -931.49372            0   -926.47328    1212.4559    13.198517    13.336841    13.294994    1.1346176    121.98765    10.607622 
   47000    305.95671   -930.70301            0   -925.40358   -2284.0336    13.334301    13.344923    13.319668    1.4172972    124.63413    7.9553703 
   48000    267.31273   -931.06644            0   -926.43636   -5611.9035    13.458836    13.354627    13.269061    1.2768442    127.31533    5.3048055 
   49000    280.38963     -931.229            0   -926.37241    -2156.706    13.324029    13.312714    13.303495    1.2956395    129.96578    2.6523629 
   50000    300.60101   -931.08819            0   -925.88152   -1178.4874    13.273352    13.323447    13.348865    1.3607604    132.62327            0 
Loop time of 132.623 on 1 procs for 50000 steps with 135 atoms

Performance: 32.573 ns/day, 0.737 hours/ns, 377.008 timesteps/s
99.9% CPU use with 1 MPI tasks x no OpenMP threads

MPI task timing breakdown:
Section |  min time  |  avg time  |  max time  |%varavg| %total
---------------------------------------------------------------
Pair    | 69.944     | 69.944     | 69.944     |   0.0 | 52.74
Kspace  | 29.35      | 29.35      | 29.35      |   0.0 | 22.13
Neigh   | 0.27105    | 0.27105    | 0.27105    |   0.0 |  0.20
Comm    | 0.85207    | 0.85207    | 0.85207    |   0.0 |  0.64
Output  | 0.0011744  | 0.0011744  | 0.0011744  |   0.0 |  0.00
Modify  | 32.004     | 32.004     | 32.004     |   0.0 | 24.13
Other   |            | 0.2006     |            |       |  0.15

Nlocal:        135.000 ave         135 max         135 min
Histogram: 1 0 0 0 0 0 0 0 0 0
Nghost:        4024.00 ave        4024 max        4024 min
Histogram: 1 0 0 0 0 0 0 0 0 0
Neighs:        44322.0 ave       44322 max       44322 min
Histogram: 1 0 0 0 0 0 0 0 0 0

Total # of neighbors = 44322
Ave neighs/atom = 328.31111
Neighbor list builds = 238
Dangerous builds = 0

# Stage 1: nvt_equilibriation
unfix int
restart         0
fix             int all nvt temp 300 300 0.5
run             50000
PPPM initialization ...
  using 12-bit tables for long-range coulomb (../kspace.cpp:339)
  G vector (1/distance) = 0.27872205
  grid = 15 15 15
  stencil order = 5
  estimated absolute RMS force accuracy = 5.9344823e-05
  estimated relative force accuracy = 4.1212699e-06
  using double precision KISS FFT
  3d grid and FFT values/proc = 10648 3375
Per MPI rank memory allocation (min/avg/max) = 4.411 | 4.411 | 4.411 Mbytes
Step Temp E_pair E_mol TotEng Press Lx Ly Lz Fmax CPU CPULeft 
   50000    300.60101   -931.08832            0   -925.88165   -1179.1333    13.273352    13.323447    13.348865    1.3607636            0            0 
   51000    318.76624   -931.46477            0   -925.94346   -1154.8297    13.273352    13.323447    13.348865    1.5130155      1.96875     96.46875 
   52000    313.81494   -931.53887            0   -926.10332   -2206.4186    13.273352    13.323447    13.348865    1.6411728     3.940228    94.565472 
   53000       305.01   -930.75439            0   -925.47136   -341.04919    13.273352    13.323447    13.348865    1.3083947     5.918978     92.73067 
   54000    295.65052    -930.9706            0   -925.84968   -737.01353    13.273352    13.323447    13.348865    1.6008661    7.9078159    90.939894 
   55000    301.85823   -931.61705            0   -926.38861    -1928.879    13.273352    13.323447    13.348865    1.2843762    9.8929291     89.03637 
   56000    311.83094   -930.82901            0   -925.42783   -794.85571    13.273352    13.323447    13.348865    1.6134594    11.874781    87.081735 
   57000    302.72333   -930.99294            0   -925.74951   -1227.0387    13.273352    13.323447    13.348865    1.7154285    13.857766    85.126276 
   58000     304.5897   -931.59294            0   -926.31719   -1866.3665    13.273352    13.323447    13.348865    1.3659364      15.8417     83.16893 
   59000    268.66811   -931.24561            0   -926.59205   -1909.5811    13.273352    13.323447    13.348865    1.4244512    17.827582    81.214545 
   60000    306.46457   -930.71538            0   -925.40715   -1391.8407    13.273352    13.323447    13.348865    1.2538279    19.819004    79.276016 
   61000    290.83216   -931.43007            0   -926.39261   -1938.0787    13.273352    13.323447    13.348865    1.1288731    21.810406    77.327803 
   62000    284.70901   -931.44013            0   -926.50873   -1568.1328    13.273352    13.323447    13.348865    1.2287401      23.7976    75.359067 
   63000    318.27854   -931.19029            0   -925.67743   -1330.5647    13.273352    13.323447    13.348865     1.297438    25.787596    73.395468 
   64000     272.0708   -930.64489            0   -925.93239   -413.46107    13.273352    13.323447    13.348865    1.2836131    27.782142    71.439797 
   65000    291.52745   -931.66911            0    -926.6196   -1597.7448    13.273352    13.323447    13.348865    1.3089623     29.76199    69.444643 
   66000     321.2467   -931.17988            0   -925.61561   -341.63483    13.273352    13.323447    13.348865    1.5145946    31.742986    67.453847 
   67000    289.33336   -931.08505            0   -926.07354   -1051.7354    13.273352    13.323447    13.348865    1.4626161    33.718409    65.453382 
   68000    222.17921   -931.19657            0   -927.34823   -1564.3579    13.273352    13.323447    13.348865    1.6331677    35.702729     63.47152 
   69000    288.10251   -931.31723            0   -926.32705   -1183.0452    13.273352    13.323447    13.348865    1.5049562    37.677526    61.473858 
   70000    303.73597   -930.87475            0   -925.61379   -900.93807    13.273352    13.323447    13.348865    1.8059553    39.666403    59.499606 
   71000    289.26003   -930.94905            0   -925.93882   -700.05241    13.273352    13.323447    13.348865    1.4035729    41.643011    57.507017 
   72000    275.33287   -931.34325            0   -926.57424   -1946.1973    13.273352    13.323447    13.348865    1.5083925    43.619569    55.515816 
   73000    307.69465   -930.82366            0   -925.49413   -484.61116    13.273352    13.323447    13.348865    1.6229922    45.599357    53.529681 
   74000    310.45397    -931.4425            0   -926.06517    -1301.094    13.273352    13.323447    13.348865     1.250541     47.57824    51.543095 
   75000     269.5938   -931.21461            0   -926.54501   -800.24297    13.273352    13.323447    13.348865     1.301915    49.569668    49.569668 
   76000     300.7009   -930.50645            0   -925.29806   -157.30204    13.273352    13.323447    13.348865    1.3452948    51.545011     47.58001 
   77000    308.45097   -931.61666            0   -926.27402   -2221.8948    13.273352    13.323447    13.348865    1.5075646    53.534556    45.603512 
   78000    314.62312   -931.72696            0   -926.27741   -1158.3993    13.273352    13.323447    13.348865    1.4093585    55.512002    43.616574 
   79000     281.5868   -930.56905            0   -925.69172   -1175.9209    13.273352    13.323447    13.348865    2.5434059    57.493534     41.63325 
   80000    326.61704   -931.63219            0    -925.9749   -1837.8672    13.273352    13.323447    13.348865    1.7000409    59.478106    39.652071 
   81000    292.08608   -931.59374            0   -926.53456   -1483.7172    13.273352    13.323447    13.348865    1.2572889    61.458217     37.66794 
   82000    323.31888   -930.97246            0    -925.3723    648.87345    13.273352    13.323447    13.348865    2.0583439    63.436422    35.682988 
   83000    299.35689   -931.11984            0   -925.93473   -894.41887    13.273352    13.323447    13.348865    1.0795893     65.41316    33.697689 
   84000    292.33144    -931.0948            0   -926.03137   -660.74896    13.273352    13.323447    13.348865    1.2435693    67.392661    31.714194 
   85000    290.34787    -930.7414            0   -925.71233    370.78169    13.273352    13.323447    13.348865    1.4736542    69.407025    29.745868 
   86000    323.29363   -930.76852            0   -925.16879    52.714857    13.273352    13.323447    13.348865    1.3019145    71.386801    27.761534 
   87000    278.83323   -931.23462            0   -926.40499   -888.03913    13.273352    13.323447    13.348865    1.2654321      73.3579    25.774398 
   88000    339.38943   -931.57161            0    -925.6931   -751.00096    13.273352    13.323447    13.348865    1.3306513    75.332805    23.789307 
   89000    356.86398   -930.73922            0   -924.55803   -1220.9706    13.273352    13.323447    13.348865    2.4465223    77.316543     21.80723 
   90000     276.9347   -931.06822            0   -926.27148   -1057.4009    13.273352    13.323447    13.348865    1.1792643    79.302622    19.825656 
   91000    306.30744   -931.50604            0   -926.20053   -901.07106    13.273352    13.323447    13.348865    1.4165799    81.297535    17.845801 
   92000    341.60726   -931.25366            0   -925.33672    -2075.957    13.273352    13.323447    13.348865     1.386996    83.277205    15.862325 
   93000    287.51599   -931.67297            0   -926.69295   -2131.5832    13.273352    13.323447    13.348865    1.2600253     85.25305    13.878404 
   94000    312.02748   -931.48887            0   -926.08429   -1548.8271    13.273352    13.323447    13.348865    1.3798133    87.228117    11.894743 
   95000    330.72639   -931.22344            0   -925.49497   -1541.9716    13.273352    13.323447    13.348865     1.328649    89.213029    9.9125589 
   96000     258.0417   -931.28704            0   -926.81754   -1880.4078    13.273352    13.323447    13.348865    1.5146664    91.186409     7.929253 
   97000    286.70251   -930.96847            0   -926.00253   -1965.6727    13.273352    13.323447    13.348865    1.3112275    93.170632    5.9470616 
   98000    301.73516   -931.02971            0    -925.8034   -1646.7265    13.273352    13.323447    13.348865    1.8434721    95.151173    3.9646323 
   99000    268.79237   -931.56035            0   -926.90464   -2685.5997    13.273352    13.323447    13.348865    1.2530118    97.135476    1.9823567 
  100000    278.19509   -931.12323            0   -926.30465   -2285.3982    13.273352    13.323447    13.348865    1.4003072    99.122077            0 
Loop time of 99.1221 on 1 procs for 50000 steps with 135 atoms

Performance: 43.583 ns/day, 0.551 hours/ns, 504.428 timesteps/s
99.9% CPU use with 1 MPI tasks x no OpenMP threads

MPI task timing breakdown:
Section |  min time  |  avg time  |  max time  |%varavg| %total
---------------------------------------------------------------
Pair    | 68.995     | 68.995     | 68.995     |   0.0 | 69.61
Kspace  | 28.954     | 28.954     | 28.954     |   0.0 | 29.21
Neigh   | 0.023648   | 0.023648   | 0.023648   |   0.0 |  0.02
Comm    | 0.82596    | 0.82596    | 0.82596    |   0.0 |  0.83
Output  | 0.0010302  | 0.0010302  | 0.0010302  |   0.0 |  0.00
Modify  | 0.15103    | 0.15103    | 0.15103    |   0.0 |  0.15
Other   |            | 0.1716     |            |       |  0.17

Nlocal:        135.000 ave         135 max         135 min
Histogram: 1 0 0 0 0 0 0 0 0 0
Nghost:        4024.00 ave        4024 max        4024 min
Histogram: 1 0 0 0 0 0 0 0 0 0
Neighs:        44269.0 ave       44269 max       44269 min
Histogram: 1 0 0 0 0 0 0 0 0 0

Total # of neighbors = 44269
Ave neighs/atom = 327.91852
Neighbor list builds = 21
Dangerous builds = 0

# Stage 2: main_nvt_simulation
unfix int
dump     atom_info all custom 1000 main_nvt_simulation-trajectory.lammpstrj element x y z q id type vx vy vz
dump_modify     atom_info append yes
dump_modify     atom_info sort id
dump_modify     atom_info element Na O Cl
restart         0
fix             int all nvt temp 300 300 0.5
run             2000000
PPPM initialization ...
  using 12-bit tables for long-range coulomb (../kspace.cpp:339)
  G vector (1/distance) = 0.27872205
  grid = 15 15 15
  stencil order = 5
  estimated absolute RMS force accuracy = 5.9344823e-05
  estimated relative force accuracy = 4.1212699e-06
  using double precision KISS FFT
  3d grid and FFT values/proc = 10648 3375
Per MPI rank memory allocation (min/avg/max) = 5.683 | 5.683 | 5.683 Mbytes
Step Temp E_pair E_mol TotEng Press Lx Ly Lz Fmax CPU CPULeft 
  100000    278.19509   -931.12323            0   -926.30465   -2285.3982    13.273352    13.323447    13.348865    1.4003072            0            0 
  101000    297.47118   -930.45321            0   -925.30075   -1132.3763    13.273352    13.323447    13.348865    1.5508304    1.9788461    3955.7152 
  102000    307.56638   -930.77942            0    -925.4521   -1392.5479    13.273352    13.323447    13.348865    1.5296624    3.9635479    3959.5844 
  103000    325.52176    -931.6089            0   -925.97058   -1774.1943    13.273352    13.323447    13.348865    1.0512596    5.9372082    3952.2016 
  104000    267.34235   -930.86111            0   -926.23051   -1130.6482    13.273352    13.323447    13.348865    2.1204203    7.9309711    3957.5546 
  105000    295.92326   -930.55681            0   -925.43117   -229.16177    13.273352    13.323447    13.348865    1.6288237    9.9115391    3954.7041 
  106000    297.63411   -931.07233            0   -925.91706   -1759.4246    13.273352    13.323447    13.348865    1.8196329    11.900845    3955.0478 
  107000    270.57733   -931.02213            0    -926.3355   -1252.3459    13.273352    13.323447    13.348865    1.5705525     13.87136    3949.3746 
  108000    320.50409   -931.03226            0   -925.48086   -1370.9684    13.273352    13.323447    13.348865    1.5577351     15.85684    3948.3534 
  109000    264.99008   -931.41829            0   -926.82843   -2876.8962    13.273352    13.323447    13.348865     1.059989    17.852218    3949.3076 
  110000    306.30052    -931.3622            0   -926.05681   -1519.3214    13.273352    13.323447    13.348865    1.5222856    19.834885    3947.1423 
  111000     309.2312   -930.94337            0   -925.58722   -1925.1399    13.273352    13.323447    13.348865    1.4221031    21.827459    3946.8015 
  112000    266.36319   -931.50673            0   -926.89309   -2338.1951    13.273352    13.323447    13.348865    1.6236861    23.806949    3944.0179 
  113000    265.39809   -930.88759            0   -926.29067   -1525.2787    13.273352    13.323447    13.348865   0.93948368    25.797831    3943.0994 
  114000    313.78186   -931.21358            0   -925.77861   -2006.3206    13.273352    13.323447    13.348865    1.4184455    27.770719     3939.475 
  115000    292.99587   -930.97502            0   -925.90008   -1538.5968    13.273352    13.323447    13.348865    1.9304568    29.767805     3939.273 
  116000    305.13481   -931.82388            0   -926.53868   -2474.5654    13.273352    13.323447    13.348865    1.3869458    31.739717     3935.725 
  117000     324.1479   -930.91933            0   -925.30481   -1507.4272    13.273352    13.323447    13.348865    1.3968271    33.713763    3932.6114 
  118000    304.92186   -931.14112            0   -925.85961   -1622.5039    13.273352    13.323447    13.348865    1.2681588    35.687899    3929.6343 
  119000    311.49275   -931.43851            0   -926.04319   -1723.0147    13.273352    13.323447    13.348865    1.0171416    37.666003    3927.1765 
  120000    295.31814   -930.90448            0   -925.78931   -1764.3843    13.273352    13.323447    13.348865    1.5474608    39.659646     3926.305 
  121000    328.70938   -930.61962            0   -924.92609   -1662.4409    13.273352    13.323447    13.348865    1.8177524    41.631963     3923.317 
  122000    291.51481   -931.26445            0   -926.21516   -2086.8154    13.273352    13.323447    13.348865    1.3184017    43.613473    3921.2478 
  123000    314.23957    -931.1674            0    -925.7245   -1948.3347    13.273352    13.323447    13.348865    1.2147145     45.57954    3917.8587 
  124000    326.69305   -930.61835            0   -924.95975   -1520.5138    13.273352    13.323447    13.348865    1.3062542    47.550574    3914.9973 
  125000    279.59836   -931.00295            0   -926.16007   -1544.9693    13.273352    13.323447    13.348865    1.5817601    49.530439    3912.9048 
  126000    300.79846   -930.89649            0   -925.68641    -1678.785    13.273352    13.323447    13.348865    1.5998077    51.502262    3910.2103 
  127000    322.49253   -931.00351            0   -925.41766   -1482.3617    13.273352    13.323447    13.348865    1.6858776    53.474388    3907.5915 
  128000    285.16482   -931.51571            0   -926.57641   -2673.4295    13.273352    13.323447    13.348865    1.4537392    55.443297    3904.7922 
  129000    317.70197   -930.99996            0   -925.49709   -978.83712    13.273352    13.323447    13.348865    1.3967309     57.42895    3903.1883 
  130000    311.44021   -931.01899            0   -925.62457   -1261.2583    13.273352    13.323447    13.348865    1.7532768    59.404987    3900.9275 
  131000    299.83389   -931.52113            0   -926.32775   -1311.8505    13.273352    13.323447    13.348865    1.7141205    61.391493      3899.35 
  132000    322.06002   -931.74838            0   -926.17002   -1830.5128    13.273352    13.323447    13.348865    1.4912324    63.361487    3896.7315 
  133000    316.18836   -930.78482            0   -925.30817   -1338.1217    13.273352    13.323447    13.348865    1.4546979    65.338089    3894.5461 
  134000    254.11793   -930.95439            0   -926.55284   -1747.0549    13.273352    13.323447    13.348865    1.6933098    67.313276    3892.2912 
  135000    273.06339   -930.78827            0   -926.05858   -695.40107    13.273352    13.323447    13.348865    1.2884848    69.288049    3890.0291 
  136000     321.3174   -931.27056            0   -925.70506   -1693.0812    13.273352    13.323447    13.348865    1.1233199    71.265418    3887.9245 
  137000    253.81971   -931.39244            0   -926.99606   -837.19737    13.273352    13.323447    13.348865    1.4359935    73.238281    3885.5878 
  138000    281.76878   -930.71966            0   -925.83918   -112.41525    13.273352    13.323447    13.348865    1.5096428    75.213212    3883.3769 
  139000    320.82689   -931.38462            0   -925.82762   -1154.0451    13.273352    13.323447    13.348865    1.3229958    77.192052    3881.3748 
  140000    267.40481    -931.6939            0   -927.06222   -1691.7132    13.273352    13.323447    13.348865    1.3073869    79.171839    3879.4202 
  141000    288.54924   -931.22205            0   -926.22413   -501.56664    13.273352    13.323447    13.348865     1.700115    81.150589    3877.4148 
  142000    290.96927   -930.79884            0   -925.75901   -734.65407    13.273352    13.323447    13.348865    1.5362804    83.126598    3875.2829 
  143000    347.30853   -931.70437            0   -925.68869   -1795.9174    13.273352    13.323447    13.348865    1.3747447    85.100161    3873.0469 
  144000    287.84952   -931.63144            0   -926.64564   -2078.3193    13.273352    13.323447    13.348865    1.2796265    87.074653    3870.8642 
  145000    317.97859   -930.84884            0   -925.34118   -519.83406    13.273352    13.323447    13.348865    2.1805326    89.048806     3868.676 
  146000    277.24341   -930.72075            0   -925.91866   -670.75283    13.273352    13.323447    13.348865    1.6788495    91.028742    3866.7427 
  147000    302.98571   -931.57775            0   -926.32978   -2432.0229    13.273352    13.323447    13.348865    1.5899182    93.017064    3865.1559 
  148000    345.52563   -930.91162            0   -924.92681   -1194.6583    13.273352    13.323447    13.348865    1.4970264    94.992025    3863.0091 
  149000    263.03495   -930.71306            0   -926.15707   -2033.9578    13.273352    13.323447    13.348865     1.478429    96.979525    3861.3685 
  150000    328.69102    -931.5988            0   -925.90558   -1726.7871    13.273352    13.323447    13.348865    1.0462744    98.947894    3858.9679 
  151000    335.92008   -930.63556            0   -924.81713   -1183.0235    13.273352    13.323447    13.348865    1.5883265    100.93393    3857.2596 
  152000    298.70737   -930.97112            0   -925.79726   -1085.6985    13.273352    13.323447    13.348865    1.1280134    102.90594    3855.0149 
  153000    284.89453   -931.33054            0   -926.39592   -1652.6739    13.273352    13.323447    13.348865    1.5325099    104.87584     3852.703 
  154000    313.61559   -931.03818            0   -925.60609   -1027.0953    13.273352    13.323447    13.348865    1.2678873    106.84852    3850.5041 
  155000    315.30037   -931.10532            0   -925.64405   -971.46512    13.273352    13.323447    13.348865    1.2318468    108.81793    3848.1979 
  156000    291.68045   -931.44828            0   -926.39613   -1993.6944    13.273352    13.323447    13.348865    1.3445781    110.79273    3846.0903 
  157000    302.58819   -930.97686            0   -925.73577   -1485.4147    13.273352    13.323447    13.348865     1.362441    112.76962     3844.059 
  158000    304.52961   -930.62687            0   -925.35215   -1737.6024    13.273352    13.323447    13.348865     1.559045    114.75406    3842.2826 
  159000    315.62071   -931.84058            0   -926.37376   -1992.6004    13.273352    13.323447    13.348865    1.2674155    116.73034    3840.2305 
  160000    276.93292   -930.73262            0   -925.93591   -70.217499    13.273352    13.323447    13.348865    1.6616575    118.70493     3838.126 
  161000    315.32542   -930.84256            0   -925.38085   -168.10914    13.273352    13.323447    13.348865    1.1450841    120.67924    3836.0172 
  162000    280.99388   -930.87212            0   -926.00507   -1090.4109    13.273352    13.323447    13.348865     1.205654    122.65495    3833.9563 
  163000    278.76388   -930.80048            0   -925.97205   -505.81665    13.273352    13.323447    13.348865    1.3357096    124.64183    3832.2416 
  164000    364.77446   -931.06931            0    -924.7511   -784.43194    13.273352    13.323447    13.348865    1.4345436    126.61838     3830.206 
  165000    304.19201    -931.2999            0   -926.03103   -1603.7021    13.273352    13.323447    13.348865    1.5706143    128.59108    3828.0575 
  166000    308.05712   -931.44769            0   -926.11187   -1697.0274    13.273352    13.323447    13.348865    1.2749459     130.5673    3826.0175 
  167000    376.43205   -931.34107            0   -924.82095   -1291.6893    13.273352    13.323447    13.348865    1.5094621     132.5389    3823.8461 
  168000    299.77871   -931.26339            0   -926.07096   -2319.2136    13.273352    13.323447    13.348865    1.4396448    134.50973    3821.6587 
  169000    278.27356   -930.75228            0   -925.93235   -1261.2107    13.273352    13.323447    13.348865    1.7375373    136.48413    3819.5777 
  170000    319.65807   -930.95176            0     -925.415   -684.39714    13.273352    13.323447    13.348865    1.4345869    138.45854    3817.4998 
  171000    256.52188    -930.8966            0   -926.45342   -1235.4435    13.273352    13.323447    13.348865    1.7448017    140.43173    3815.3916 
  172000    271.10556   -930.73804            0   -926.04226   -820.09259    13.273352    13.323447    13.348865    1.4281325    142.40185    3813.2052 
  173000    289.59471   -930.49272            0   -925.47669   -441.15673    13.273352    13.323447    13.348865    1.4943157    144.37025    3810.9791 
  174000    296.98833   -931.40714            0   -926.26304   -1402.8764    13.273352    13.323447    13.348865    1.9173429    146.35281    3809.1286 
  175000    294.05145   -931.34122            0   -926.24799   -1317.6341    13.273352    13.323447    13.348865    1.3939501    148.32785    3807.0816 
  176000    290.40312   -930.28264            0   -925.25261   -218.31962    13.273352    13.323447    13.348865    1.3923131    150.31995    3805.4682 
  177000    289.79438   -931.48182            0   -926.46233   -1091.9722    13.273352    13.323447    13.348865    1.5199328    152.29168    3803.3364 
  178000    292.28723    -931.1749            0   -926.11224    -1457.641    13.273352    13.323447    13.348865    1.2959672    154.28659    3801.7799 
  179000    310.03745   -931.20008            0   -925.82996     46.20966    13.273352    13.323447    13.348865    1.4292262    156.25956    3799.6786 
  180000    272.24121   -931.62136            0   -926.90591   -2409.3285    13.273352    13.323447    13.348865    1.5097473    158.25413    3798.0992 
  181000     287.7881   -930.93651            0   -925.95177   -1626.9504    13.273352    13.323447    13.348865    1.2878732    160.24306    3796.3757 
  182000    332.23012   -931.43247            0   -925.67796   -1482.2137    13.273352    13.323447    13.348865    1.0786534    162.22035    3794.3736 
  183000    277.31462   -931.75148            0   -926.94815   -2185.4176    13.273352    13.323447    13.348865    1.4305247    164.20655    3792.5777 
  184000    292.51674   -931.33487            0   -926.26823   -1275.7692    13.273352    13.323447    13.348865    1.7022053    166.17584    3790.3918 
  185000    296.81773   -930.87343            0   -925.73229   -1370.1325    13.273352    13.323447    13.348865    1.7383896    168.15732    3788.4854 
  186000    304.67828   -930.87419            0    -925.5969   -848.63561    13.273352    13.323447    13.348865    1.6723972    170.13163    3786.4179 
  187000     278.1406   -931.44629            0   -926.62865   -1097.0469    13.273352    13.323447    13.348865    1.3991334    172.12588    3784.7909 
  188000    297.38244   -930.54746            0   -925.39655   -2098.4217    13.273352    13.323447    13.348865    1.3186923    174.10034    3782.7257 
  189000    305.97023   -931.12019            0   -925.82052    -810.6931    13.273352    13.323447    13.348865    1.3743508     176.0805    3780.7847 
  190000    289.24857    -931.3242            0   -926.31416   -1382.7711    13.273352    13.323447    13.348865    1.5359328    178.07715    3779.1929 
  191000    358.64079   -931.08155            0   -924.86958   -1867.2326    13.273352    13.323447    13.348865    1.2324998    180.04477    3776.9831 
  192000     309.5497   -931.45565            0   -926.09398   -1100.6011    13.273352    13.323447    13.348865    1.1322971    182.02561    3775.0528 
  193000    296.33621   -931.18976            0   -926.05696   -1670.2588    13.273352    13.323447    13.348865    1.1462762     183.9881    3772.7453 
  194000     324.3625   -930.35959            0   -924.74135   -1066.2858    13.273352    13.323447    13.348865    1.4503027    185.96738    3770.7853 
  195000     286.6952   -930.74683            0   -925.78103   -1855.3105    13.273352    13.323447    13.348865     2.000276    187.93948    3768.6811 
  196000    302.02003   -931.47814            0    -926.2469   -2271.7005    13.273352    13.323447    13.348865    1.6721835    189.93179    3766.9806 
  197000    310.58195   -930.79346            0   -925.41391   -1710.0865    13.273352    13.323447    13.348865    1.3561265    191.90002    3764.8013 
  198000    315.96002   -931.25315            0   -925.78045   -628.43388    13.273352    13.323447    13.348865    1.3630877     193.8661     3762.585 
  199000    277.77883   -931.13337            0     -926.322   -1542.6425    13.273352    13.323447    13.348865    1.2282148    195.84691    3760.6564 
  200000    322.81021   -931.15558            0   -925.56423    -1434.689    13.273352    13.323447    13.348865    1.4583115    197.81486    3758.4823 
  201000    335.11533   -930.12219            0    -924.3177    667.03367    13.273352    13.323447    13.348865     1.622025    199.78913    3756.4314 
  202000    303.37951   -931.15262            0   -925.89783   -1185.1605    13.273352    13.323447    13.348865    1.5873491    201.75547    3754.2342 
  203000    291.11169   -931.29137            0   -926.24906   -486.16674    13.273352    13.323447    13.348865    1.5571011     203.7179    3751.9695 
  204000     313.3703   -930.57724            0    -925.1494   -433.02869    13.273352    13.323447    13.348865    1.6192454    205.68837    3749.8572 
  205000    318.24189   -931.71475            0   -926.20252   -2324.7479    13.273352    13.323447    13.348865    1.3159867    207.67559      3748.05 
  206000    298.10024   -931.27724            0   -926.11388   -1885.7344    13.273352    13.323447    13.348865    1.8737043    209.64491    3745.9195 
  207000    311.58367   -930.73066            0   -925.33377   -377.89623    13.273352    13.323447    13.348865    1.2642738    211.61009    3743.7186 
  208000    268.52658     -931.229            0   -926.57789   -1833.8772    13.273352    13.323447    13.348865     1.589869    213.57374    3741.4955 
  209000    273.26719   -930.64103            0   -925.90781    -1316.367    13.273352    13.323447    13.348865    1.6950577    215.54123    3739.3437 
  210000    311.53297   -931.00903            0   -925.61301   -511.60239    13.273352    13.323447    13.348865    1.6515798     217.5081    3737.1846 
  211000    301.84269   -931.21598            0   -925.98781   -1579.8536    13.273352    13.323447    13.348865    1.2785609    219.48092    3735.1303 
  212000    259.75832   -930.42194            0    -925.9227    -411.1038    13.273352    13.323447    13.348865    1.6180941    221.45177    3733.0441 
  213000    305.49873   -930.44281            0   -925.15131   -333.62267    13.273352    13.323447    13.348865    1.1475435    223.42348    3730.9744 
  214000    289.14644   -930.90196            0    -925.8937   -649.76716    13.273352    13.323447    13.348865    1.4363133    225.39589     3728.918 
  215000     292.1623   -931.30002            0   -926.23952   -1363.1629    13.273352    13.323447    13.348865    1.5758366    227.37095    3726.9065 
  216000    336.90262   -930.61445            0   -924.77901    -61.05857    13.273352    13.323447    13.348865    1.3979555    229.34611    3724.8972 
  217000    291.44293    -930.5256            0   -925.47756   -1114.2758    13.273352    13.323447    13.348865    1.1377652    231.32152    3722.8925 
  218000    305.53157    -931.6021            0   -926.31004   -924.34758    13.273352    13.323447    13.348865    1.1718626    233.29268    3720.8206 
  219000    298.48029   -931.19978            0   -926.02984   -1534.2186    13.273352    13.323447    13.348865     1.090512    235.26356    3718.7458 
  220000    324.82748   -930.98649            0    -925.3602   -2064.5611    13.273352    13.323447    13.348865    1.4100686    237.23794    3716.7277 
  221000    292.83698   -931.18542            0   -926.11323   -467.76622    13.273352    13.323447    13.348865     1.228436      239.217     3714.783 
  222000    281.51977   -930.83346            0    -925.9573   -1418.7104    13.273352    13.323447    13.348865    1.4988863    241.19178    3712.7719 
  223000    356.23166   -930.94279            0   -924.77256   -1394.1229    13.273352    13.323447    13.348865    1.5432666    243.17428     3710.879 
  224000    309.40489   -931.08793            0   -925.72877    -756.4347    13.273352    13.323447    13.348865     1.670653    245.15542    3708.9642 
  225000     278.1557   -930.93973            0   -926.12183   -2298.8209    13.273352    13.323447    13.348865    1.4128195    247.13404    3707.0106 
  226000     312.9411   -930.66066            0   -925.24025   -173.94725    13.273352    13.323447    13.348865    1.4804175    249.12967    3705.3096 
  227000    310.12693   -931.25626            0   -925.88459   -1445.4955    13.273352    13.323447    13.348865    1.4553027    251.10943    3703.3697 
  228000    304.58549   -931.47803            0   -926.20235   -1309.3601    13.273352    13.323447    13.348865    1.4434581    253.25449    3703.8469 
  229000    334.58197   -930.98075            0    -925.1855   -516.52668    13.273352    13.323447    13.348865    1.2860181    255.29852    3702.8181 
  230000    320.81046   -931.45631            0   -925.89959   -1138.8926    13.273352    13.323447    13.348865     1.474285    257.30721    3701.2653 
  231000    290.90035   -931.41634            0    -926.3777   -1861.5352    13.273352    13.323447    13.348865    1.3184177    259.28113    3699.2094 
  232000    320.27052   -930.81193            0   -925.26457   -1000.0472    13.273352    13.323447    13.348865    1.9137669    261.29266    3697.6871 
  233000    275.16449   -931.46204            0   -926.69595   -1461.7183    13.273352    13.323447    13.348865    1.4031813     263.2761     3695.763 
  234000    289.90209   -931.08469            0   -926.06334   -1581.3953    13.273352    13.323447    13.348865    1.2825679    265.25228     3693.737 
  235000    293.63224   -930.64446            0    -925.5585   -1442.5869    13.273352    13.323447    13.348865    1.1162818    267.23835    3691.8484 
  236000    258.49345   -931.33327            0   -926.85594   -2641.5276    13.273352    13.323447    13.348865    1.3432283    269.21456    3689.8231 
  237000    270.53956    -930.8001            0   -926.11412   -1079.4218    13.273352    13.323447    13.348865     1.468408     271.1987    3687.9064 
  238000    276.23323   -930.51502            0   -925.73043   -896.89606    13.273352    13.323447    13.348865    1.4435112    273.17725    3685.9134 
  239000    255.63939   -931.24363            0   -926.81574   -1125.2775    13.273352    13.323447    13.348865    1.3059895    275.16593     3684.056 
  240000    281.64445   -931.01853            0   -926.14021   -1158.5234    13.273352    13.323447    13.348865     1.237641    277.17678    3682.4916 
  241000    308.44889   -931.14266            0   -925.80006   -273.50452    13.273352    13.323447    13.348865    1.2767699    279.16353    3680.6029 
  242000    279.31865   -931.64814            0    -926.8101   -1944.5255    13.273352    13.323447    13.348865    1.4255565    281.14574    3678.6534 
  243000    276.32323   -931.16008            0   -926.37393   -821.66806    13.273352    13.323447    13.348865    1.5377926    283.12838    3676.7091 
  244000     300.5132   -930.97195            0    -925.7668    -332.7039    13.273352    13.323447    13.348865    1.3654019    285.12275    3674.9155 
  245000    276.17332   -930.93617            0   -926.15261   -2073.4813    13.273352    13.323447    13.348865    1.7787539    287.12355    3673.2013 
  246000    252.73097   -931.09759            0   -926.72007   -1071.7288    13.273352    13.323447    13.348865    1.3635249    289.12558    3671.4988 
  247000    321.21077    -930.9846            0   -925.42095   -1188.2856    13.273352    13.323447    13.348865    1.5459833    291.12514    3669.7611 
  248000    300.23779   -931.49037            0      -926.29   -2091.5836    13.273352    13.323447    13.348865    1.5389938    293.13626    3668.1646 
  249000    278.63734   -931.17952            0   -926.35328   -853.40856    13.273352    13.323447    13.348865    1.3539393    295.14521    3666.5355 
  250000    316.63694   -930.80132            0   -925.31689    408.82364    13.273352    13.323447    13.348865    1.3122869    297.14601    3664.8008 
  251000    291.22068   -931.45569            0    -926.4115   -1342.9816    13.273352    13.323447    13.348865    1.7268484    299.15858    3663.2068 
  252000    347.27477   -931.52547            0   -925.51038   -1494.9332    13.273352    13.323447    13.348865    1.4228138    301.15261    3661.3817 
  253000    317.73781   -930.86631            0   -925.36282   -1541.3165    13.273352    13.323447    13.348865    1.3494348    303.15533    3659.6595 
  254000    265.53419   -930.87575            0   -926.27647   -1949.5418    13.273352    13.323447    13.348865    1.3638178    305.13391    3657.6442 
  255000    324.78205   -930.93721            0    -925.3117   -834.58881    13.273352    13.323447    13.348865    1.6417989    307.11696    3655.6825 
  256000    323.05428     -931.149            0   -925.55342   -1233.7425    13.273352    13.323447    13.348865    1.1320999    309.09898    3653.7085 
  257000    273.86699   -930.88514            0   -926.14153   -1038.0777    13.273352    13.323447    13.348865    1.8615208    311.07729    3651.6907 
  258000    316.32125   -931.10213            0   -925.62317   -592.57373    13.273352    13.323447    13.348865    1.7664131     313.0568    3649.6875 
  259000    305.65626   -930.57349            0   -925.27926   -994.27821    13.273352    13.323447    13.348865    1.2092955    315.08743    3648.2765 
  260000      304.594   -931.47124            0   -926.19541     -453.769    13.273352    13.323447    13.348865    1.2627139    317.06486    3646.2459 
  261000    311.60802   -931.00936            0   -925.61204   -698.24658    13.273352    13.323447    13.348865    1.0265792    319.04051    3644.1957 
  262000     315.4255   -930.44655            0   -924.98311   -1187.5105    13.273352    13.323447    13.348865    1.3744321    321.02524    3642.2494 
  263000    285.84997   -931.21668            0   -926.26551   -1324.0771    13.273352    13.323447    13.348865    1.5943897    323.00098    3640.2013 
  264000    300.22915   -930.71035            0   -925.51013   -614.96792    13.273352    13.323447    13.348865    1.4344073     324.9762    3638.1482 
  265000    305.05008   -930.78942            0   -925.50569   -1436.4631    13.273352    13.323447    13.348865    1.7001005     326.9697    3636.2994 
  266000    288.37257   -931.46247            0   -926.46761   -1756.0511    13.273352    13.323447    13.348865    1.4534882    328.97879     3634.621 
  267000     302.5959   -930.61103            0   -925.36981   -400.82852    13.273352    13.323447    13.348865    1.4617753    330.95238    3632.5492 
  268000    286.03993   -930.93119            0   -925.97673   -1450.0678    13.273352    13.323447    13.348865    1.3799715    332.92756    3630.4958 
  269000    304.30125   -931.35368            0   -926.08292   -2320.5978    13.273352    13.323447    13.348865    1.3861489    334.90342    3628.4507 
  270000    322.49622   -931.20773            0   -925.62181   -1334.7647    13.273352    13.323447    13.348865    1.4880903    336.87512    3626.3616 
  271000    300.78616   -931.32218            0    -926.1123   -1384.9211    13.273352    13.323447    13.348865    1.4632077    338.84761    3624.2823 
  272000     269.3423   -931.19362            0   -926.52838    -2058.238    13.273352    13.323447    13.348865    1.4791047    340.82168    3622.2212 
  273000    308.60577   -930.76279            0   -925.41747   -1736.4421    13.273352    13.323447    13.348865    1.1203719    342.79547    3620.1579 
  274000    295.15784   -931.39354            0   -926.28115   -1253.1636    13.273352    13.323447    13.348865    1.8752947    344.77058    3618.1096 
  275000    312.75039   -931.27918            0   -925.86208   -1702.7829    13.273352    13.323447    13.348865    1.2348962     346.7405    3616.0081 
  276000    315.34903   -930.84468            0   -925.38257   -940.11924    13.273352    13.323447    13.348865    1.8431543    348.72179    3614.0258 
  277000    284.19814   -931.23956            0   -926.31701   -1510.4628    13.273352    13.323447    13.348865     1.158276    350.69304    3611.9402 
  278000    302.74116   -931.00663            0   -925.76289   -883.47347    13.273352    13.323447    13.348865    1.3886654    352.66311    3609.8437 
  279000     321.1821   -929.92293            0   -924.35978   -26.720276    13.273352    13.323447    13.348865    1.7758554    354.64244     3607.843 
  280000    304.10886   -931.06587            0   -925.79845   -1619.3468    13.273352    13.323447    13.348865    1.2745893    356.62513    3605.8763 
  281000    305.67435   -931.69255            0   -926.39801   -2286.4126    13.273352    13.323447    13.348865    1.0844649    358.59827    3603.8135 
  282000    328.51138    -930.8486            0    -925.1585   -214.52002    13.273352    13.323447    13.348865    1.4094136    360.60332    3602.0705 
  283000    318.92865   -931.42871            0    -925.9046   -1270.1179    13.273352    13.323447    13.348865    1.6060794    362.59577    3600.1995 
  284000     286.1935   -931.03921            0   -926.08209   -2071.1097    13.273352    13.323447    13.348865     1.460813    364.57204    3598.1676 
  285000    308.20422   -930.67089            0   -925.33253   -1210.7114    13.273352    13.323447    13.348865    1.3675962    366.60997    3596.7411 
  286000    359.24036   -931.71841            0   -925.49606   -1912.7652    13.273352    13.323447    13.348865    1.2547528    368.58743    3594.7183 
  287000     283.2282   -931.16485            0   -926.25909   -2039.7635    13.273352    13.323447    13.348865    1.2149692    370.56369    3592.6843 
  288000    301.25384   -930.54946            0   -925.33148   -1047.6635    13.273352    13.323447    13.348865    2.1027148    372.53898    3590.6416 
  289000    293.18683   -930.98062            0   -925.90237   -1865.5302    13.273352    13.323447    13.348865    1.2688567    374.58569    3589.2841 
  290000    271.42696   -930.99732            0   -926.29597   -2030.2239    13.273352    13.323447    13.348865    1.4688146    376.55607    3587.1921 
  291000    323.04604   -930.90339            0   -925.30795   -156.44667    13.273352    13.323447    13.348865    1.4657284    378.52589     3585.096 
  292000    296.36069   -931.85765            0   -926.72442   -1720.0611    13.273352    13.323447    13.348865     1.052308    380.50382    3583.0777 
  293000    301.98001   -931.17003            0   -925.93947    -1585.755    13.273352    13.323447    13.348865    1.1813015    382.47939    3581.0377 
  294000    303.32517   -930.88454            0   -925.63069    -1103.094    13.273352    13.323447    13.348865    1.5299342    384.45597    3579.0076 
  295000    276.58537   -931.93991            0   -927.14921   -2163.4511    13.273352    13.323447    13.348865    1.2374433    386.43445    3576.9958 
  296000       295.12   -931.36848            0   -926.25675   -1468.8444    13.273352    13.323447    13.348865    1.5623658    388.40909    3574.9489 
  297000    342.19613   -931.51625            0   -925.58912   -602.51564    13.273352    13.323447    13.348865    1.4548288    390.38481    3572.9128 
  298000    277.39321   -931.52825            0   -926.72356   -1921.7645    13.273352    13.323447    13.348865    1.3934542    392.36144    3570.8854 
  299000    315.22596    -931.6582            0   -926.19822   -1618.5026    13.273352    13.323447    13.348865    1.3410955    394.33728    3568.8515 
  300000    308.10931   -931.17012            0   -925.83341   -1354.5541    13.273352    13.323447    13.348865    1.3174306    396.31286    3566.8157 
  301000    295.46701    -931.3201            0   -926.20236   -1307.6051    13.273352    13.323447    13.348865    1.3423704    398.29112    3564.8046 
  302000    275.75836   -931.46402            0   -926.68765   -901.09376    13.273352    13.323447    13.348865    1.4164896    400.26531    3562.7576 
  303000    330.29617   -931.22107            0   -925.50006   -2052.7507    13.273352    13.323447    13.348865    1.7100179    402.24292    3560.7415 
  304000    294.60026   -931.30012            0   -926.19739   -1732.2821    13.273352    13.323447    13.348865    1.4173154    404.21712    3558.6958 
  305000    248.94159   -931.81937            0   -927.50749   -2438.6447    13.273352    13.323447    13.348865    1.3265261    406.19267    3556.6626 
  306000    310.15221   -931.43358            0   -926.06148   -1286.5929    13.273352    13.323447    13.348865    1.9717264    408.16768    3554.6254 
  307000    350.40223   -931.66382            0   -925.59455   -1744.3649    13.273352    13.323447    13.348865    1.2963677    410.14565    3552.6143 
  308000    262.73608   -931.17178            0   -926.62097   -2065.7309    13.273352    13.323447    13.348865    1.9067485    412.12231    3550.5922 
  309000    339.18069   -931.32971            0   -925.45481   -1096.6453    13.273352    13.323447    13.348865    1.2938447    414.09882    3548.5693 
  310000     334.4488   -931.60096            0   -925.80802   -1686.4488    13.273352    13.323447    13.348865     1.180256    416.07628    3546.5549 
  311000    276.38608   -931.19375            0    -926.4065   -2792.7212    13.273352    13.323447    13.348865    1.2504065    418.05272    3544.5323 
  312000    342.24982   -930.75849            0   -924.83043   -1099.8272    13.273352    13.323447    13.348865    1.3654473    420.03003    3542.5175 
  313000    299.52048    -931.1581            0   -925.97014   -909.54822    13.273352    13.323447    13.348865    1.4300489    422.00687    3540.4989 
  314000    286.68094   -931.17846            0    -926.2129   -1253.2071    13.273352    13.323447    13.348865    1.5974392    423.97854    3538.4378 
  315000    329.74526   -930.59078            0   -924.87931    369.75989    13.273352    13.323447    13.348865    1.2647543    425.95175    3536.3901 
  316000    279.71117     -930.723            0   -925.87817   -778.83068    13.273352    13.323447    13.348865    1.2753916    427.92596    3534.3514 
  317000    304.26959    -931.3833            0   -926.11309    -2063.824    13.273352    13.323447    13.348865    1.3466534    429.89834    3532.2984 
  318000    325.56912   -930.84908            0   -925.20994   -500.86848    13.273352    13.323447    13.348865    1.1872814    431.86985    3530.2388 
  319000    289.65617   -931.00846            0   -925.99137   -390.21103    13.273352    13.323447    13.348865    1.4837775     433.8419    3528.1846 
  320000    302.96019   -931.42641            0   -926.17887   -1807.6319    13.273352    13.323447    13.348865    1.3167985    435.81309    3526.1241 
  321000    298.36487   -930.42532            0   -925.25738   -1087.9396    13.273352    13.323447    13.348865    1.3608459    437.78866    3524.0996 
  322000    329.34341   -930.47462            0   -924.77011   -155.83507    13.273352    13.323447    13.348865    1.8167858    439.76483    3522.0805 
  323000    310.64465   -931.41653            0    -926.0359   -1151.3412    13.273352    13.323447    13.348865    1.6390052    441.74341    3520.0809 
  324000    289.40908   -931.31214            0   -926.29932   -1207.6213    13.273352    13.323447    13.348865    1.1342177    443.71943    3518.0612 
  325000     317.3054   -930.59346            0   -925.09746    -1580.502    13.273352    13.323447    13.348865    1.4084906    445.69715    3516.0553 
  326000    318.69203   -931.72598            0   -926.20596   -1584.7794    13.273352    13.323447    13.348865    1.4600166    447.67309    3514.0357 
  327000    298.54987   -931.21157            0   -926.04043   -1606.7013    13.273352    13.323447    13.348865    1.5607849    449.65287    3512.0465 
  328000    298.56114   -930.34959            0   -925.17825   -1087.9696    13.273352    13.323447    13.348865    1.3289937    451.63179    3510.0506 
  329000    313.90463    -931.2548            0    -925.8177   -1022.7406    13.273352    13.323447    13.348865    1.4278891    453.60796    3508.0336 
  330000    265.98508   -930.92759            0    -926.3205   -1223.5907    13.273352    13.323447    13.348865    1.7592111    455.58478     3506.022 
  331000      323.752   -930.73147            0    -925.1238   -617.10302    13.273352    13.323447    13.348865    1.5275836    457.56299    3504.0214 
  332000    309.10972   -931.43689            0   -926.08284   -1666.8564    13.273352    13.323447    13.348865    1.8112846    459.54196    3502.0267 
  333000    286.46777   -930.95666            0    -925.9948   -931.90259    13.273352    13.323447    13.348865    1.3202396    461.51818    3500.0113 
  334000    324.58858   -931.18287            0   -925.56071   -740.63161    13.273352    13.323447    13.348865    1.7587001    463.49718    3498.0172 
  335000    304.06041   -931.64088            0    -926.3743   -1609.4427    13.273352    13.323447    13.348865      1.31464    465.47432    3496.0093 
  336000    295.43393   -931.32129            0   -926.20412   -953.90591    13.273352    13.323447    13.348865    1.4831896    467.45025    3493.9926 
  337000    318.43199   -931.04503            0   -925.52951   -1510.2542    13.273352    13.323447    13.348865    1.4224165    469.42309    3491.9532 
  338000    297.10584   -931.54723            0    -926.4011   -1409.4123    13.273352    13.323447    13.348865    1.4191425    471.39218    3489.8866 
  339000    319.65499   -930.93034            0   -925.39364   -1022.9892    13.273352    13.323447    13.348865    1.8428866    473.36389    3487.8402 
  340000    320.53246   -931.30434            0   -925.75244    -1105.577    13.273352    13.323447    13.348865    1.4216995    475.33435    3485.7853 
  341000    289.91425   -931.33003            0   -926.30847   -2058.0611    13.273352    13.323447    13.348865    1.2679164    477.30737    3483.7497 
  342000    350.47155   -931.48485            0   -925.41438   -779.70494    13.273352    13.323447    13.348865    1.6274833    479.28184    3481.7251 
  343000    335.60515   -930.78103            0   -924.96806   -1087.5913    13.273352    13.323447    13.348865     1.358541    481.25298    3479.6769 
  344000    318.05986   -931.56197            0    -926.0529    -1126.958    13.273352    13.323447    13.348865    1.3369228    483.22413    3477.6294 
  345000    284.42836   -931.14328            0   -926.21674   -330.74255    13.273352    13.323447    13.348865    1.6277708    485.19576     3475.586 
  346000    353.90559   -931.19621            0   -925.06626   -889.82535    13.273352    13.323447    13.348865    1.4009863    487.16737    3473.5429 
  347000    306.61867   -931.46042            0   -926.14952   -774.66848    13.273352    13.323447    13.348865    1.5658993    489.13864    3471.4981 
  348000    290.25973   -931.04203            0   -926.01449   -1503.8061    13.273352    13.323447    13.348865    1.3023905    491.10959    3469.4516 
  349000    338.82833   -930.75786            0   -924.88906     47.54212    13.273352    13.323447    13.348865    1.4335782    493.08064    3467.4064 
  350000     321.0048   -931.61853            0   -926.05846   -931.26625    13.273352    13.323447    13.348865    1.5474809    495.05278    3465.3695 
  351000    291.39291   -931.13036            0   -926.08318   -379.14682    13.273352    13.323447    13.348865     1.185545    497.02293    3463.3192 
  352000    304.37253   -930.23966            0   -924.96767   -1384.0078    13.273352    13.323447    13.348865    2.0175919    498.99498    3461.2826 
  353000    294.13746    -931.3932            0   -926.29849    -1207.985    13.273352    13.323447    13.348865    1.1307599    500.96921    3459.2617 
  354000    271.86475   -930.74938            0   -926.04045   -1406.2267    13.273352    13.323447    13.348865    1.5867826     502.9394    3457.2134 
  355000    332.96048   -931.03058            0   -925.26342   -474.66293    13.273352    13.323447    13.348865    1.3422047    504.91551    3455.2061 
  356000    254.14679   -931.07984            0    -926.6778   -585.11375    13.273352    13.323447    13.348865    1.1934389    506.89009    3453.1887 
  357000    342.65312    -931.5853            0   -925.65025   -1069.4545    13.273352    13.323447    13.348865    1.3588668    508.85782    3451.1252 
  358000    297.36129   -931.07045            0    -925.9199   -922.17699    13.273352    13.323447    13.348865    1.3398084     510.8289    3449.0851 
  359000    266.11912   -931.28181            0    -926.6724   -1145.1853    13.273352    13.323447    13.348865    1.3093036    512.80129    3447.0542 
  360000    318.46129    -931.2682            0   -925.75217   -1414.6874    13.273352    13.323447    13.348865    1.4559724    514.77299    3445.0192 
  361000    299.69492   -931.19735            0   -926.00638   -1807.2419    13.273352    13.323447    13.348865    1.0854723    516.74461    3442.9842 
  362000    253.81859   -931.44398            0   -927.04762   -1794.0635    13.273352    13.323447    13.348865    1.1293999    518.71546    3440.9445 
  363000    298.16366   -931.16837            0   -926.00392   -1181.1768    13.273352    13.323447    13.348865    1.4381822    520.68777     3438.915 
  364000    304.41358   -930.94573            0   -925.67302   -753.55891    13.273352    13.323447    13.348865    1.6463345    522.65951    3436.8822 
  365000     252.1177   -930.85262            0   -926.48573   -610.73493    13.273352    13.323447    13.348865    1.5074983    524.62932    3434.8373 
  366000    285.41086    -930.9778            0   -926.03424   -1887.3629    13.273352    13.323447    13.348865    1.2424312    526.60058    3432.8023 
  367000    328.29547   -931.23932            0   -925.55296   -1441.6195    13.273352    13.323447    13.348865    1.6183293    528.57139    3430.7649 
  368000    287.39543   -931.28457            0   -926.30663   -2517.2527    13.273352    13.323447    13.348865    1.3078507    530.54241    3428.7293 
  369000      293.651   -930.87008            0   -925.78379   -57.869451    13.273352    13.323447    13.348865    1.9071593    532.51123    3426.6801 
  370000    297.42401   -930.62736            0   -925.47572   -745.82415    13.273352    13.323447    13.348865    1.3324936    534.48252    3424.6473 
  371000    294.57548   -931.58948            0   -926.48718   -2655.2013    13.273352    13.323447    13.348865     1.439632    536.45197    3422.6032 
  372000    303.37681   -930.69089            0   -925.43614   -435.40032    13.273352    13.323447    13.348865    1.2923119    538.42258     3420.567 
  373000    312.96345   -930.55772            0   -925.13692   -801.73616    13.273352    13.323447    13.348865    1.4986733    540.39549    3418.5458 
  374000    275.01978   -930.99412            0   -926.23054   -961.01896    13.273352    13.323447    13.348865    1.2266901     542.3656    3416.5074 
  375000    288.62032   -931.11418            0   -926.11503   -2361.0066    13.273352    13.323447    13.348865    1.2627667    544.33735    3414.4797 
  376000    320.71655   -930.84392            0   -925.28883   -1582.5304    13.273352    13.323447    13.348865     1.278275    546.30828    3412.4474 
  377000    292.62439   -931.03206            0   -925.96355    -1577.007    13.273352    13.323447    13.348865    1.1411631     548.2792    3410.4154 
  378000    287.43674   -930.97125            0    -925.9926    -1556.316    13.273352    13.323447    13.348865    1.3209766    550.24967     3408.381 
  379000    313.49736   -930.40263            0   -924.97259   -805.95016    13.273352    13.323447    13.348865    1.2749425    552.22012    3406.3471 
  380000    288.81356   -931.08757            0   -926.08507   -1116.0792    13.273352    13.323447    13.348865    1.2731069    554.19377    3404.3331 
  381000    284.12677   -931.04993            0   -926.12861   -1035.6057    13.273352    13.323447    13.348865    1.6194453    556.16419    3402.2998 
  382000    326.23453    -930.3695            0   -924.71884   -925.66983    13.273352    13.323447    13.348865    1.3493759    558.13529     3400.271 
  383000    294.79569   -931.26625            0   -926.16014   -2221.4321    13.273352    13.323447    13.348865    1.2674447    560.10578    3398.2389 
  384000    311.43418   -931.35255            0   -925.95825   -1048.9155    13.273352    13.323447    13.348865    1.3826768    562.07898    3396.2237 
  385000    307.35066   -930.72463            0   -925.40105   -1035.0823    13.273352    13.323447    13.348865    1.6343985     564.0479     3394.183 
  386000    283.52118    -931.4822            0   -926.57137   -1469.9148    13.273352    13.323447    13.348865    1.2125721    566.01896    3392.1556 
  387000    278.41558   -930.71693            0   -925.89453    344.38822    13.273352    13.323447    13.348865    1.4023047    567.98805    3390.1169 
  388000    331.61179   -931.39989            0   -925.65609   -1061.8947    13.273352    13.323447    13.348865    1.1847939    569.95809    3388.0842 
  389000    304.37615   -931.64879            0   -926.37673   -2053.5682    13.273352    13.323447    13.348865    1.5408969    571.92717    3386.0463 
  390000    272.10649   -931.47623            0   -926.76311   -1924.5316    13.273352    13.323447    13.348865    1.6019538     573.8972    3384.0145 
  391000    322.07143   -931.07684            0   -925.49829   -467.15037    13.273352    13.323447    13.348865    1.7157667    575.86748    3381.9846 
  392000     280.2086   -931.11862            0   -926.26516   -646.05936    13.273352    13.323447    13.348865    1.4891212    577.83607    3379.9452 
  393000    263.24238   -931.16438            0   -926.60479   -1831.0924    13.273352    13.323447    13.348865    1.5766626    579.80749    3377.9228 
  394000    317.06176   -931.45015            0   -925.95837    -1989.311    13.273352    13.323447    13.348865    1.5106676    581.77735    3375.8917 
  395000     321.9362   -931.00043            0   -925.42421   -34.652306    13.273352    13.323447    13.348865    1.3047881    583.74716    3373.8607 
  396000    302.41091   -931.84318            0   -926.60517   -1487.1945    13.273352    13.323447    13.348865    1.2265336    585.71771    3371.8344 
  397000    314.94804   -931.28246            0   -925.82729   -2626.8964    13.273352    13.323447    13.348865    1.3202353    587.69042    3369.8208 
  398000    289.75867   -930.64589            0   -925.62702   -1355.5693    13.273352    13.323447    13.348865      1.39517      589.669    3367.8411 
  399000    274.15688   -931.02879            0   -926.28015   -2018.0287    13.273352    13.323447    13.348865    1.2433546    591.64658    3365.8556 
  400000    272.97681   -931.50269            0    -926.7745   -2313.8904    13.273352    13.323447    13.348865    1.1593079    593.62731    3363.8881 
  401000    310.13178    -930.9145            0   -925.54275   -1570.1454    13.273352    13.323447    13.348865    1.6371786    595.59638    3361.8546 
  402000    295.50155   -931.09906            0   -925.98072   -1925.4057    13.273352    13.323447    13.348865    1.2697344    597.56452    3359.8164 
  403000    288.43802   -931.70325            0   -926.70725   -2616.3866    13.273352    13.323447    13.348865    1.0817839    599.53167    3357.7731 
  404000    307.90025   -931.30441            0   -925.97131   -981.56423    13.273352    13.323447    13.348865   0.98847247    601.50261    3355.7514 
  405000    307.31063   -930.82094            0   -925.49806    108.19486    13.273352    13.323447    13.348865    1.5832357    603.47506    3353.7385 
  406000    291.85993   -931.76678            0   -926.71152   -2618.6835    13.273352    13.323447    13.348865    1.2671345    605.44994    3351.7392 
  407000    304.68768   -931.02379            0   -925.74633   -1033.6067    13.273352    13.323447    13.348865    1.3771802    607.42311    3349.7307 
  408000    336.75714   -931.60099            0   -925.76807   -1059.5725    13.273352    13.323447    13.348865    1.2616764     609.3971    3347.7269 
  409000    306.50588   -931.54262            0   -926.23368   -1089.9255    13.273352    13.323447    13.348865    1.3160352    611.36827    3345.7079 
  410000      286.131   -931.59709            0   -926.64106   -1056.1323    13.273352    13.323447    13.348865    1.2692251     613.3399    3343.6917 
  411000    345.70048   -931.45934            0   -925.47151   -1107.8929    13.273352    13.323447    13.348865    1.5934235    615.31336    3341.6857 
  412000    308.12807   -931.51687            0   -926.17983   -2291.1987    13.273352    13.323447    13.348865    1.3948502    617.28623    3339.6768 
  413000    254.91803   -931.00296            0   -926.58756   -1584.8442    13.273352    13.323447    13.348865    1.1170146    619.29677    3337.8711 
  414000    323.03975   -931.38272            0   -925.78739   -1609.1817    13.273352    13.323447    13.348865    1.4700027    621.27856    3335.9097 
  415000    295.60785   -931.02457            0   -925.90439   -1106.4071    13.273352    13.323447    13.348865    1.3580274    623.27146    3334.0076 
  416000    276.70396    -931.4964            0   -926.70365   -1999.2522    13.273352    13.323447    13.348865    1.7486545    625.24727    3332.0139 
  417000    332.40052   -931.37528            0   -925.61782   -1825.0145    13.273352    13.323447    13.348865    1.4457619    627.24523    3330.1379 
  418000    283.81031   -930.94453            0   -926.02869   -1618.8124    13.273352    13.323447    13.348865    1.3675463    629.22044    3328.1408 
  419000    257.86514   -931.77966            0   -927.31321   -2285.3222    13.273352    13.323447    13.348865    1.1920197    631.20636    3326.2003 
  420000    268.63407   -930.94702            0   -926.29405   -1807.5325    13.273352    13.323447    13.348865    1.4623692     633.2211    3324.4108 
  421000    332.08157    -931.2571            0   -925.50517   -1308.6965    13.273352    13.323447    13.348865    1.5218629    635.24763    3322.6815 
  422000    305.56209   -931.52183            0   -926.22923   -1914.3411    13.273352    13.323447    13.348865    1.1852162    637.22643    3320.7017 
  423000    237.09581   -930.53054            0   -926.42383   -1317.3042    13.273352    13.323447    13.348865    1.3555209    639.21038    3318.7486 
  424000    288.22733    -930.7905            0   -925.79816   -237.24008    13.273352    13.323447    13.348865    1.3479683    641.20816    3316.8669 
  425000    307.41739   -931.32758            0   -926.00284   -1262.9776    13.273352    13.323447    13.348865    1.7705169    643.19112    3314.9081 
  426000    264.17191   -931.56922            0   -926.99353   -1773.2433    13.273352    13.323447    13.348865    1.4552215     645.1938    3313.0504 
  427000    299.16979   -931.00072            0   -925.81884   -1798.4825    13.273352    13.323447    13.348865    1.4365431    647.18208    3311.1181 
  428000    297.33226   -931.03467            0   -925.88462   -524.41666    13.273352    13.323447    13.348865    1.5685498    649.17625    3309.2155 
  429000    287.91681    -931.9873            0   -927.00034   -2889.3847    13.273352    13.323447    13.348865    1.1574066    651.15467    3307.2324 
  430000      293.382   -930.70182            0   -925.62019   -632.13364    13.273352    13.323447    13.348865    1.3713032    653.13119    3305.2396 
  431000    302.60168   -931.23519            0   -925.99387   -1698.4072    13.273352    13.323447    13.348865     1.288818    655.11371    3303.2773 
  432000    275.13213   -931.44414            0   -926.67862   -1573.3827    13.273352    13.323447    13.348865     1.249835    657.11386    3301.4033 
  433000     323.5073   -930.86649            0   -925.26307   -1777.7306    13.273352    13.323447    13.348865    1.3262575    659.10341    3299.4756 
  434000    285.19649      -931.21            0   -926.27015     -934.934    13.273352    13.323447    13.348865    1.4578634    661.07866    3297.4762 
  435000    312.92182   -931.52251            0   -926.10244    -1448.356    13.273352    13.323447    13.348865     1.460975    663.06503    3295.5322 
  436000    327.73991   -930.51921            0   -924.84247   -407.98326    13.273352    13.323447    13.348865    1.5139828    665.05311    3293.5963 
  437000    251.60121   -930.54057            0   -926.18262      -1654.5    13.273352    13.323447    13.348865    1.7722631    667.03964    3291.6526 
  438000    288.91729   -931.01408            0   -926.00978   -1880.2127    13.273352    13.323447    13.348865    1.8447229    669.03678    3289.7607 
  439000    310.91798   -930.49572            0   -925.11036    -1257.486    13.273352    13.323447    13.348865    1.4815122     671.0116    3287.7589 
  440000    285.15883   -930.82343            0   -925.88423   -508.18952    13.273352    13.323447    13.348865    1.5657327      673.011    3285.8772 
  441000    296.71222   -931.23712            0   -926.09781   -1736.7439    13.273352    13.323447    13.348865    1.6565819    674.98257    3283.8595 
  442000    334.04516   -931.42359            0   -925.63764    -2299.701    13.273352    13.323447    13.348865    1.5190971    676.97852    3281.9602 
  443000    269.78518   -930.38353            0   -925.71062   -1088.9161    13.273352    13.323447    13.348865    1.4297205    678.95409    3279.9619 
  444000    296.65436   -931.72692            0   -926.58861   -2006.8125    13.273352    13.323447    13.348865    1.0791656    680.96011    3278.1103 
  445000    295.40252   -930.75371            0   -925.63708   -1524.4223    13.273352    13.323447    13.348865    1.3842205    682.94078    3276.1362 
  446000    334.51792   -931.74615            0   -925.95201   -2599.9944    13.273352    13.323447    13.348865     1.274099    684.92036    3274.1569 
  447000    293.39039   -931.59051            0   -926.50874   -3038.6428    13.273352    13.323447    13.348865    1.5241579    686.90842    3272.2179 
  448000    323.47114   -931.14337            0   -925.54058   -946.97281    13.273352    13.323447    13.348865     1.232195    688.88407    3270.2198 
  449000    327.47603   -931.45775            0   -925.78558   -1687.7271    13.273352    13.323447    13.348865    1.2402268    690.86723    3268.2573 
  450000    295.73725   -931.54776            0   -926.42534   -1651.1844    13.273352    13.323447    13.348865    1.1544235    692.84064    3266.2488 
  451000     308.3886   -931.12682            0   -925.78526   -2250.7298    13.273352    13.323447    13.348865    1.7187207    694.81784    3264.2582 
  452000    354.95697   -931.37998            0   -925.23182   -833.44409    13.273352    13.323447    13.348865    1.4364748    696.79449    3262.2651 
  453000     293.1613   -931.40823            0   -926.33042   -1298.6215    13.273352    13.323447    13.348865    1.6514478    698.77773    3260.3029 
  454000    305.55671   -931.46901            0    -926.1765   -869.89083    13.273352    13.323447    13.348865    1.0932796    700.77194    3258.3916 
  455000    290.00202   -930.34586            0   -925.32277   -1284.4102    13.273352    13.323447    13.348865      1.87871     702.7453    3256.3831 
  456000    299.86828    -931.2574            0   -926.06342   -1528.6183    13.273352    13.323447    13.348865    1.0537682    704.73754    3254.4621 
  457000    300.58236   -931.28834            0     -926.082   -1795.1904    13.273352    13.323447    13.348865    1.3801539    706.71592    3252.4769 
  458000    326.47852   -930.68239            0    -925.0275   -572.50012    13.273352    13.323447    13.348865    1.6716974    708.71162    3250.5712 
  459000    311.33117   -931.59608            0   -926.20356   -2034.8395    13.273352    13.323447    13.348865    1.2417025    710.69227    3248.5961 
  460000    277.29194    -930.6339            0   -925.83096   -14.804731    13.273352    13.323447    13.348865    1.2549438    712.68684    3246.6845 
  461000    325.03443   -930.28703            0   -924.65716      118.994    13.273352    13.323447    13.348865    1.5152559    714.66131    3244.6812 
  462000    290.74802   -930.93132            0   -925.89532   -1398.2135    13.273352    13.323447    13.348865    1.3056634     716.6537     3242.759 
  463000    280.18976   -931.01992            0   -926.16679    -1311.143    13.273352    13.323447    13.348865    1.4453926     718.6399    3240.8086 
  464000    304.56911   -930.71273            0   -925.43734   -1120.1855    13.273352    13.323447    13.348865    1.5218799    720.61603    3238.8127 
  465000    294.43578   -930.84043            0   -925.74055   -374.39776    13.273352    13.323447    13.348865    1.7571609    722.59328    3236.8219 
  466000    293.41956   -931.41806            0   -926.33579   -1914.9408    13.273352    13.323447    13.348865    1.5640739    724.56674    3234.8143 
  467000    335.98039   -931.20775            0   -925.38828   -1863.6321    13.273352    13.323447    13.348865    1.5239859    726.55403    3232.8685 
  468000    283.63906   -930.60283            0   -925.68996    56.712239    13.273352    13.323447    13.348865     1.691747    728.53389    3230.8894 
  469000    298.64564   -931.66566            0   -926.49286   -2297.5603    13.273352    13.323447    13.348865    1.3789821    730.51218    3228.9035 
  470000    298.82909   -930.49513            0   -925.31916   -129.68959    13.273352    13.323447    13.348865     1.330326    732.48635    3226.8993 
  471000     289.8177   -930.76021            0   -925.74032   -1566.9638    13.273352    13.323447    13.348865    1.7346306    734.46255    3224.9043 
  472000    298.17889   -931.14621            0   -925.98149   -1588.5333    13.273352    13.323447    13.348865    1.4881325    736.43692    3222.9014 
  473000    291.46793   -931.02072            0   -925.97225   -969.42691    13.273352    13.323447    13.348865    1.1962129    738.48424    3221.2168 
  474000    310.95128   -930.96087            0   -925.57492   -1131.9161    13.273352    13.323447    13.348865    1.5387163     740.5489    3219.6057 
  475000    300.19178   -931.67314            0   -926.47356    -1596.574    13.273352    13.323447    13.348865    1.3953486    742.53033    3217.6314 
  476000    294.37025   -931.11823            0   -926.01948    -964.2445    13.273352    13.323447    13.348865    1.2728836    744.52432    3215.7114 
  477000    330.99168   -931.28064            0   -925.54758   -1050.9918    13.273352    13.323447    13.348865    1.4385591    746.50314    3213.7257 
  478000    255.47495   -930.85481            0   -926.42977   -907.98727    13.273352    13.323447    13.348865    1.2868253    748.55142    3212.0381 
  479000    333.60786   -930.90291            0   -925.12453   -1187.8334    13.273352    13.323447    13.348865    1.4385328    750.54596    3210.1187 
  480000    291.76052   -930.95264            0   -925.89909   -1476.0248    13.273352    13.323447    13.348865    1.3708648    752.52454    3208.1309 
  481000    306.85947   -931.52964            0   -926.21457   -1944.2857    13.273352    13.323447    13.348865    1.2671885    754.49845    3206.1233 
  482000    334.46415   -930.54377            0   -924.75056    -682.1882    13.273352    13.323447    13.348865    1.8406723     756.4685    3204.0996 
  483000    293.79394    -930.4716            0   -925.38284   -1609.1334    13.273352    13.323447    13.348865    1.7519447    758.44332    3202.0962 
  484000    309.20131   -931.62887            0   -926.27323   -2102.4329    13.273352    13.323447    13.348865    1.2807533    760.41852    3200.0946 
  485000    282.52365   -930.75045            0    -925.8569    -482.8163    13.273352    13.323447    13.348865     1.383728    762.39471    3198.0973 
  486000    331.66393   -931.09622            0   -925.35151   -702.89527    13.273352    13.323447    13.348865    1.1281577    764.37028    3196.0975 
  487000    289.73152   -931.26542            0   -926.24702   -1251.4661    13.273352    13.323447    13.348865    1.4773387     766.3466    3194.1009 
  488000    297.83294   -930.95158            0   -925.79286    -1368.474    13.273352    13.323447    13.348865    1.4871417    768.32202    3192.1007 
  489000    348.15879   -930.58103            0   -924.55062   -576.70472    13.273352    13.323447    13.348865    1.7208934    770.29949    3190.1092 
  490000    318.30652   -931.58653            0   -926.07318   -2110.9493    13.273352    13.323447    13.348865    1.0543149    772.27639    3188.1153 
  491000    309.83295   -931.37123            0   -926.00466   -1530.1464    13.273352    13.323447    13.348865     1.137957    774.25129    3186.1134 
  492000    335.69627   -930.99392            0   -925.17938   -801.82937    13.273352    13.323447    13.348865    1.3101469    776.22829    3184.1201 
  493000      311.828   -931.78962            0   -926.38849   -2314.1045    13.273352    13.323447    13.348865    1.2002192    778.20504     3182.126 
  494000    302.17053   -931.31062            0   -926.07677   -2169.9939    13.273352    13.323447    13.348865    1.3691219    780.17943    3180.1222 
  495000    320.45621   -930.93384            0   -925.38326   -704.23925    13.273352    13.323447    13.348865    1.7754278    782.15672    3178.1305 
  496000    309.44212   -931.19666            0   -925.83686    -125.4019    13.273352    13.323447    13.348865    1.5067571    784.12993    3176.1222 
  497000     285.3112    -931.1815            0   -926.23967   -525.20088    13.273352    13.323447    13.348865    1.3342008    786.10961    3174.1403 
  498000    300.34846   -930.94578            0   -925.74348   -1446.4303    13.273352    13.323447    13.348865    1.2411787    788.08688    3172.1487 
  499000    327.43518   -931.06764            0   -925.39618   -1672.1167    13.273352    13.323447    13.348865    1.2034675    790.06557    3170.1629 
  500000      274.521   -931.27084            0   -926.51591   -1715.3438    13.273352    13.323447    13.348865    1.4155443    792.04058    3168.1623 
  501000     306.3304   -930.96796            0   -925.66206    -1504.636    13.273352    13.323447    13.348865    1.6700178     794.0161    3166.1639 
  502000      290.257   -931.12582            0   -926.09832    -3088.342    13.273352    13.323447    13.348865    1.5341754    795.99164    3164.1658 
  503000    269.00483   -931.22729            0    -926.5679   -1548.2233    13.273352    13.323447    13.348865    1.2062568    797.96738    3162.1685 
  504000    322.31526    -931.1454            0   -925.56263   -1324.0687    13.273352    13.323447    13.348865    1.4981594    799.94227     3160.168 
  505000    306.85839   -931.53881            0   -926.22376   -1345.7865    13.273352    13.323447    13.348865    1.4189521    801.91773    3158.1698 
  506000    266.73128   -931.68849            0   -927.06847   -2037.9776    13.273352    13.323447    13.348865    1.3719845    803.89137    3156.1646 
  507000    303.73253   -931.27972            0   -926.01881   -446.16183    13.273352    13.323447    13.348865     1.695896    805.86344    3154.1534 
  508000    321.17636   -931.08875            0    -925.5257    333.90502    13.273352    13.323447    13.348865    1.4264923     807.8384    3152.1538 
  509000    279.66185   -931.65566            0   -926.81168   -1308.6677    13.273352    13.323447    13.348865     1.553434    809.81128    3150.1461 
  510000    308.62091   -931.30803            0   -925.96245   -885.90544    13.273352    13.323447    13.348865    1.7582711    811.78614    3148.1463 
  511000    281.00667   -930.68457            0   -925.81729   -1068.6367    13.273352    13.323447    13.348865    1.8127616    813.76068    3146.1453 
  512000    244.20515   -930.79965            0   -926.56981   -694.76237    13.273352    13.323447    13.348865    1.5002466    815.73077    3144.1274 
  513000    299.02397   -931.72037            0   -926.54102   -2566.6863    13.273352    13.323447    13.348865    1.5129358    817.70082    3142.1095 
  514000    325.27887   -931.41133            0   -925.77722    -1824.673    13.273352    13.323447    13.348865    1.5183619    819.67261    3140.0985 
  515000    282.66529   -931.17929            0   -926.28328    -1858.776    13.273352    13.323447    13.348865    1.2845406    821.64576    3138.0928 
  516000    238.19982   -930.90582            0   -926.77999   -2235.4109    13.273352    13.323447    13.348865    1.2871361    823.61533    3136.0738 
  517000    328.28917   -931.25005            0    -925.5638   -1180.4351    13.273352    13.323447    13.348865    1.5346276    825.58801    3134.0667 
  518000    296.05299   -931.56412            0   -926.43623    -2754.047    13.273352    13.323447    13.348865    1.0927351     827.5653    3132.0773 
  519000     308.0969   -931.42316            0   -926.08665   -1477.9194    13.273352    13.323447    13.348865    1.4985319     829.5401    3130.0785 
  520000    312.00852   -930.88804            0   -925.48378   -1053.0795    13.273352    13.323447    13.348865    1.9011222     831.5104    3128.0629 
  521000    266.14024   -931.09378            0     -926.484   -2030.9603    13.273352    13.323447    13.348865    1.4389549    833.48296     3126.056 
  522000    324.80589   -931.21193            0   -925.58602    -480.5855    13.273352    13.323447    13.348865    1.2499744    835.50595    3124.2379 
  523000    341.37964   -930.75144            0   -924.83845   -166.11634    13.273352    13.323447    13.348865    1.8425248    837.60782    3122.7129 
  524000    311.99415   -931.57638            0   -926.17237   -2057.5945    13.273352    13.323447    13.348865     1.404481    839.58082    3120.7061 
  525000    318.08673   -931.56351            0   -926.05398   -1829.3163    13.273352    13.323447    13.348865    1.3025903    841.55108    3118.6893 
  526000    324.29161   -930.75832            0   -925.14131   -953.90878    13.273352    13.323447    13.348865    1.3556881    843.52406    3116.6828 
  527000    312.89178   -931.31807            0   -925.89852   -2142.5072    13.273352    13.323447    13.348865    1.2630908    845.49584     3114.672 
  528000    268.71003   -930.72177            0   -926.06748   -1256.1294    13.273352    13.323447    13.348865    1.5644399    847.46877    3112.6657 
  529000     308.5909   -931.00962            0   -925.66456   -1098.9274    13.273352    13.323447    13.348865    1.2430853    849.44094    3110.6567 
  530000    312.33609   -931.06579            0   -925.65586    -1132.322    13.273352    13.323447    13.348865    1.4915684    851.41189    3108.6434 
  531000    298.78322   -931.78935            0   -926.61417    -1925.192    13.273352    13.323447    13.348865    1.4154878    853.38047    3106.6217 
  532000    305.37266   -930.86319            0   -925.57388   -1515.8119    13.273352    13.323447    13.348865    1.5814832    855.34866    3104.5988 
  533000    311.32167   -931.31153            0   -925.91917   -1214.5005    13.273352    13.323447    13.348865     1.313453    857.31981    3102.5869 
  534000    277.07283   -931.36208            0   -926.56294   -1126.8836    13.273352    13.323447    13.348865    1.5214888    859.28879    3100.5674 
  535000     310.4249   -930.86342            0    -925.4866    256.49947    13.273352    13.323447    13.348865    1.4360413    861.26787    3098.5844 
  536000    294.06514   -930.93449            0   -925.84103   -1889.0281    13.273352    13.323447    13.348865    1.7370834    863.24182    3096.5831 
  537000    291.73435   -931.50344            0   -926.45035   -2489.3502    13.273352    13.323447    13.348865    1.7175485    865.21702    3094.5863 
  538000    325.29598   -931.47916            0   -925.84475   -1155.0056    13.273352    13.323447    13.348865     1.356795    867.18433    3092.5615 
  539000    326.84306   -931.30044            0   -925.63924    -838.9984    13.273352    13.323447    13.348865    1.1732076    869.15256    3090.5402 
  540000    280.20054   -931.42384            0   -926.57052   -2767.9681    13.273352    13.323447    13.348865    1.4379734    871.11806    3088.5095 
  541000    307.28402   -930.86246            0   -925.54004   -1671.6408    13.273352    13.323447    13.348865     1.573333    873.08532    3086.4853 
  542000    304.52244    -930.9057            0   -925.63111   -1099.4169    13.273352    13.323447    13.348865    1.4214518    875.05238    3084.4607 
  543000    300.03256   -931.16238            0   -925.96556    51.498907    13.273352    13.323447    13.348865    1.7402829    877.01931    3082.4358 
  544000    267.06137   -930.46309            0   -925.83735   -791.24658    13.273352    13.323447    13.348865    1.5684246     878.9848    3080.4062 
  545000    333.67023   -930.91122            0   -925.13176   -1520.0673    13.273352    13.323447    13.348865    1.7259514    880.95163    3078.3815 
  546000     272.5176   -931.08121            0   -926.36097    -2067.216    13.273352    13.323447    13.348865       1.2486    882.92892    3076.3936 
  547000    311.25846   -931.31645            0   -925.92519   -1671.7828    13.273352    13.323447    13.348865    1.1995862     884.9032    3074.3952 
  548000    366.30948   -930.52902            0   -924.18422    -282.2953    13.273352    13.323447    13.348865    1.8180938    886.87798    3072.3987 
  549000    280.61532   -930.68719            0   -925.82669   -1247.5375    13.273352    13.323447    13.348865    1.3707883    888.85483    3070.4094 
  550000    245.59053   -930.70781            0   -926.45397   -1361.8285    13.273352    13.323447    13.348865    1.1442809    890.82627    3068.4016 
  551000    319.29902      -930.99            0   -925.45946   -1262.9241    13.273352    13.323447    13.348865     1.164821    892.79789    3066.3945 
  552000    296.40806   -931.21619            0   -926.08214   -1824.1339    13.273352    13.323447    13.348865    1.3367323    894.76878    3064.3851 
  553000    292.87987   -931.48959            0   -926.41666   -1908.9375    13.273352    13.323447    13.348865    1.1001912    896.74096    3062.3803 
  554000    292.47569   -930.61404            0   -925.54811   -1967.3242    13.273352    13.323447    13.348865    1.6045566    898.71235    3060.3729 
  555000    267.73563   -931.44461            0    -926.8072   -1995.9423    13.273352    13.323447    13.348865    1.1722567    900.68736     3058.378 
  556000    294.18026   -931.33272            0   -926.23726   -1580.7744    13.273352    13.323447    13.348865    1.6551713    902.66005    3056.3753 
  557000    309.79507   -931.04989            0   -925.68397   -2250.8794    13.273352    13.323447    13.348865    1.3710311    904.63386    3054.3765 
  558000    259.22969   -931.25552            0   -926.76544    -2841.025    13.273352    13.323447    13.348865    1.3226306    906.60602    3052.3723 
  559000    296.23062   -931.50003            0   -926.36906   -2379.4969    13.273352    13.323447    13.348865    1.2478773    908.57825    3050.3684 
  560000    315.59477    -931.3342            0   -925.86783   -2072.8756    13.273352    13.323447    13.348865    1.6691929    910.55053    3048.3648 
  561000    315.62527   -931.38878            0   -925.92188   -2494.1397    13.273352    13.323447    13.348865    1.6725088    912.52218    3046.3593 
  562000    257.09797   -931.08662            0   -926.63346   -2539.0106    13.273352    13.323447    13.348865    1.4086444    914.49092    3044.3442 
  563000    313.03914   -930.83368            0   -925.41158   -2065.9783    13.273352    13.323447    13.348865    1.3276797    916.45931    3042.3282 
  564000    285.01589   -930.82736            0   -925.89064   -1469.4924    13.273352    13.323447    13.348865    1.4395111     918.4305    3040.3216 
  565000    259.31525   -930.68039            0   -926.18882   -941.88435    13.273352    13.323447    13.348865    1.5598593    920.39792    3038.3028 
  566000     318.6621   -931.40894            0   -925.88944   -1398.0778    13.273352    13.323447    13.348865     1.383977    922.36892     3036.296 
  567000    313.07324   -930.90567            0   -925.48297   -1047.1168    13.273352    13.323447    13.348865    1.6027662    924.34658    3034.3112 
  568000    285.59508   -931.26397            0   -926.31721   -1519.4484    13.273352    13.323447    13.348865    1.2628359    926.31894     3032.309 
  569000    292.01271   -931.20735            0   -926.14944   -1187.4035    13.273352    13.323447    13.348865    1.3085236    928.28898    3030.2994 
  570000     327.3832   -931.04657            0   -925.37601    -1004.056    13.273352    13.323447    13.348865    1.4682476    930.25957    3028.2918 
  571000    288.37604     -931.228            0   -926.23308   -1323.0598    13.273352    13.323447    13.348865    1.4973141    932.22907    3026.2808 
  572000    298.99543   -930.49348            0   -925.31462   -1529.2032    13.273352    13.323447    13.348865     1.643396    934.20025    3024.2754 
  573000    308.33622   -930.84269            0   -925.50204    -1363.997    13.273352    13.323447    13.348865    1.0851377    936.16932    3022.2633 
  574000    297.48134    -931.3375            0   -926.18487   -1618.5396    13.273352    13.323447    13.348865    1.5309249    938.13952    3020.2551 
  575000    308.76337   -930.43959            0   -925.09154   -243.60601    13.273352    13.323447    13.348865    1.8817623    940.11035     3018.249 
  576000    316.12198   -930.88432            0   -925.40881   -1342.5476    13.273352    13.323447    13.348865    1.2074964    942.08147     3016.244 
  577000    307.35732   -931.39439            0    -926.0707   -2107.0986    13.273352    13.323447    13.348865    1.4920173     944.0549    3014.2466 
  578000    281.01665   -931.12153            0   -926.25408   -2096.4156    13.273352    13.323447    13.348865    1.5923885    946.02553    3012.2403 
  579000    333.50679   -930.94984            0   -925.17322   -420.36397    13.273352    13.323447    13.348865    1.2594554    947.99479    3010.2298 
  580000    289.16125    -931.3713            0   -926.36278   -1687.6112    13.273352    13.323447    13.348865    1.4374312    949.96542    3008.2238 
  581000    273.90305   -930.84795            0   -926.10371   -881.10597    13.273352    13.323447    13.348865    1.4072359    951.93347    3006.2098 
  582000    299.13521   -930.60475            0   -925.42348   -583.62258    13.273352    13.323447    13.348865    2.1016957     953.9021    3004.1979 
  583000    297.23569   -930.96774            0   -925.81936   -1016.1279    13.273352    13.323447    13.348865    1.1222573    955.87043    3002.1852 
  584000     265.1736   -931.06368            0   -926.47064   -1844.8694    13.273352    13.323447    13.348865    1.1700016    957.83953    3000.1751 
  585000    323.41156   -930.81896            0    -925.2172   -1401.4326    13.273352    13.323447    13.348865    1.5911475    959.81143    2998.1739 
  586000     293.6669   -930.86936            0    -925.7828    117.78523    13.273352    13.323447    13.348865    1.5597534    961.78435     2996.176 
  587000    301.68389   -931.26162            0   -926.03619   -409.33389    13.273352    13.323447    13.348865    1.6344025    963.75839    2994.1816 
  588000    313.30268   -930.89074            0   -925.46407   -105.30051    13.273352    13.323447    13.348865    1.8115381    965.72948    2992.1782 
  589000     327.5544   -931.27258            0   -925.59905    103.48316    13.273352    13.323447    13.348865    1.4262254    967.70076    2990.1756 
  590000    280.31713   -931.19874            0   -926.34341   -1802.3434    13.273352    13.323447    13.348865    1.1476412    969.67109    2988.1701 
  591000    327.34716   -930.79147            0   -925.12154   -1361.4476    13.273352    13.323447    13.348865    1.7453658    971.64243    2986.1679 
  592000    361.91044   -931.53303            0   -925.26443   -1037.1041    13.273352    13.323447    13.348865    1.3131709     973.6125    2984.1619 
  593000    301.53941   -931.39363            0   -926.17071   -1694.2111    13.273352    13.323447    13.348865    1.1329661    975.58209    2982.1546 
  594000    282.61282   -931.11903            0   -926.22393   -1250.1989    13.273352    13.323447    13.348865    1.2409948    977.55257    2980.1501 
  595000    309.71294   -930.58284            0   -925.21835   -1039.4586    13.273352    13.323447    13.348865    1.5534603    979.52483    2978.1513 
  596000    271.76438   -930.85915            0   -926.15196     -2063.58    13.273352    13.323447    13.348865    1.5441624    981.49355    2976.1417 
  597000    307.14175   -931.27443            0   -925.95447   -1216.9503    13.273352    13.323447    13.348865    1.2547871    983.46338    2974.1357 
  598000    358.92109   -931.26241            0   -925.04559   -1620.9019    13.273352    13.323447    13.348865    1.6369629    985.43557     2972.137 
  599000    330.99512   -931.31889            0   -925.58577    -1200.133    13.273352    13.323447    13.348865    1.2611823    987.41155    2970.1498 
  600000    277.21734   -931.04837            0   -926.24672   -2538.0977    13.273352    13.323447    13.348865    1.5396993    989.38582    2968.1575 
  601000    312.47159   -930.62086            0   -925.20858   -889.15218    13.273352    13.323447    13.348865    1.4763562    991.35772    2966.1581 
  602000    301.73371   -931.08565            0   -925.85937   -81.491931    13.273352    13.323447    13.348865    1.3607463    993.33178    2964.1654 
  603000    287.33549   -931.09451            0   -926.11762   -1177.8916    13.273352    13.323447    13.348865    1.3340549    995.30513    2962.1705 
  604000    332.78239    -931.1733            0   -925.40923    620.53469    13.273352    13.323447    13.348865    1.5415593    997.27754     2960.173 
  605000    287.81255   -931.05781            0   -926.07264   -1044.5587    13.273352    13.323447    13.348865    1.2113558    999.25322    2958.1853 
  606000    281.45475   -931.22788            0   -926.35284   -1780.4353    13.273352    13.323447    13.348865    1.1753484    1001.2257    2956.1882 
  607000    324.38186   -930.99724            0   -925.37867   -959.48558    13.273352    13.323447    13.348865    1.2963561    1003.1987    2954.1926 
  608000    298.21547   -931.02517            0   -925.85982   -2075.2587    13.273352    13.323447    13.348865    1.5217401    1005.1776    2952.2146 
  609000    303.76186   -931.74961            0   -926.48819   -1821.2934    13.273352    13.323447    13.348865    1.2584498    1007.1542    2950.2297 
  610000    276.18412   -931.29608            0   -926.51234   -2140.8808    13.273352    13.323447    13.348865    1.2346502    1009.1329    2948.2512 
  611000     317.2546    -930.9392            0   -925.44408    -1913.983    13.273352    13.323447    13.348865    1.3545616    1011.1057    2946.2552 
  612000    277.29763   -931.36825            0   -926.56522   -2708.2238    13.273352    13.323447    13.348865    1.1507322    1013.1613    2944.4999 
  613000    292.34984   -931.53726            0   -926.47351    -2267.483    13.273352    13.323447    13.348865    1.4833662    1015.1376    2942.5139 
  614000    298.50232   -930.90369            0   -925.73337   -1049.4673    13.273352    13.323447    13.348865    1.4384694     1017.105    2940.5019 
  615000    314.66353   -931.14625            0   -925.69601   -1719.4251    13.273352    13.323447    13.348865    1.8258615    1019.0714    2938.4873 
  616000    287.11113   -931.62741            0    -926.6544   -2747.4265    13.273352    13.323447    13.348865    1.2457368    1021.0396    2936.4783 
  617000    329.89005   -931.20453            0   -925.49055   -1886.8317    13.273352    13.323447    13.348865    1.5318909    1023.0055    2934.4625 
  618000    280.58864   -930.71471            0   -925.85467   -1819.7142    13.273352    13.323447    13.348865    1.3874479    1024.9704    2932.4443 
  619000    307.63839   -931.63739            0   -926.30883   -1531.9591    13.273352    13.323447    13.348865    1.3362306    1026.9377     2930.433 
  620000    283.84013   -931.36762            0   -926.45126    -1627.676    13.273352    13.323447    13.348865    1.4259415    1028.9037    2928.4183 
  621000     304.2424    -930.6673            0   -925.39756   -226.71485    13.273352    13.323447    13.348865    1.3756423    1030.8712    2926.4078 
  622000    272.03841    -931.2529            0   -926.54096     -1192.76    13.273352    13.323447    13.348865    1.2809863    1032.8472    2924.4218 
  623000       280.18   -931.15781            0   -926.30486   -230.94085    13.273352    13.323447    13.348865    1.4981404    1034.8207    2922.4286 
  624000    328.48931   -931.39955            0   -925.70983   -1258.6182    13.273352    13.323447    13.348865    1.3712423     1036.794     2920.435 
  625000    264.13138   -930.98367            0   -926.40868    -1183.539    13.273352    13.323447    13.348865    1.9225234    1038.7661    2918.4382 
  626000    266.46282   -931.19821            0   -926.58284    -1006.601    13.273352    13.323447    13.348865    1.3517314    1040.7375    2916.4392 
  627000    292.65051   -930.82513            0   -925.75617    93.748409    13.273352    13.323447    13.348865    1.2185179    1042.7096    2914.4425 
  628000    295.13052   -931.29591            0     -926.184   -1216.5053    13.273352    13.323447    13.348865    1.7109781    1044.6823    2912.4475 
  629000    250.12986   -931.06983            0   -926.73737   -750.76908    13.273352    13.323447    13.348865    1.6077273    1046.6555    2910.4542 
  630000     316.8883   -931.18795            0   -925.69917   -854.59736    13.273352    13.323447    13.348865    1.5666199    1048.6277    2908.4579 
  631000    273.02135   -930.91655            0   -926.18758   -1396.5024    13.273352    13.323447    13.348865    1.2768716    1050.6023    2906.4686 
  632000    255.43771   -931.41635            0   -926.99195   -2195.9329    13.273352    13.323447    13.348865    1.1868251    1052.5774    2904.4805 
  633000    310.51991   -930.93601            0   -925.55753   -1416.8973    13.273352    13.323447    13.348865    1.2371793    1054.5512     2902.489 
  634000    308.56402     -931.396            0   -926.05141   -2319.0457    13.273352    13.323447    13.348865    1.2428903    1056.5225    2900.4907 
  635000    280.35146   -931.55162            0   -926.69569   -1650.9529    13.273352    13.323447    13.348865    1.1797448    1058.4957    2898.4976 
  636000    310.83294   -930.71756            0   -925.33366    -727.5269    13.273352    13.323447    13.348865    1.5739901    1060.4696    2896.5065 
  637000    290.72197   -931.37174            0   -926.33618   -1994.5127    13.273352    13.323447    13.348865    1.8462868     1062.442    2894.5114 
  638000    312.78496   -931.04346            0   -925.62575   -1761.0903    13.273352    13.323447    13.348865    1.7084893    1064.4104    2892.5056 
  639000    321.41176   -931.05506            0   -925.48794    -484.6512    13.273352    13.323447    13.348865    1.4699839    1066.3788       2890.5 
  640000    292.16396   -931.33002            0   -926.26949   -2013.0161    13.273352    13.323447    13.348865    1.3402229    1068.3541     2888.513 
  641000    310.41543    -930.4649            0   -925.08824   -173.66103    13.273352    13.323447    13.348865    1.7706089    1070.3331    2886.5361 
  642000    309.82411    -930.7534            0   -925.38698   -1477.0713    13.273352    13.323447    13.348865    1.2027839    1072.3112    2884.5567 
  643000    280.93915   -931.02894            0   -926.16283   -1732.4962    13.273352    13.323447    13.348865    1.5851481    1074.2951    2882.5929 
  644000    305.92369   -931.10237            0    -925.8035   -1696.1516    13.273352    13.323447    13.348865    1.7436691    1076.2754    2880.6193 
  645000    331.67433   -931.03322            0   -925.28834   -1816.6882    13.273352    13.323447    13.348865    1.1901893     1078.258    2878.6521 
  646000    292.26163    -931.3224            0   -926.26018   -1861.9208    13.273352    13.323447    13.348865    1.4423255    1080.2377    2876.6769 
  647000    321.50973   -931.30233            0   -925.73351   -1143.3024    13.273352    13.323447    13.348865    1.4808211     1082.214    2874.6927 
  648000     353.1422   -930.65371            0   -924.53698    -267.6919    13.273352    13.323447    13.348865    1.3830679    1084.1922    2872.7138 
  649000    316.88675   -931.59145            0    -926.1027   -1814.2115    13.273352    13.323447    13.348865    1.7064898    1086.1684    2870.7293 
  650000    298.80698   -931.14998            0   -925.97439   -1930.8472    13.273352    13.323447    13.348865    1.2173954    1088.1435    2868.7421 
  651000    332.91569   -930.83575            0   -925.06936   -228.68304    13.273352    13.323447    13.348865    1.4984133     1090.119    2866.7557 
  652000    285.67129   -931.44262            0   -926.49455   -1999.6985    13.273352    13.323447    13.348865    1.2154635    1092.0945    2864.7696 
  653000    341.36148   -931.68108            0    -925.7684   -534.21019    13.273352    13.323447    13.348865    1.1506655    1094.0676    2862.7772 
  654000    302.92169   -930.85196            0   -925.60509    58.186427    13.273352    13.323447    13.348865    1.2639843    1096.0448    2860.7957 
  655000     286.9053   -931.61811            0   -926.64866   -2144.1363    13.273352    13.323447    13.348865    1.6964834    1098.0164    2858.7996 
  656000     299.6211   -930.76224            0   -925.57254   -535.65403    13.273352    13.323447    13.348865    1.8089313    1100.0398    2856.9379 
  657000    292.16415   -931.46973            0   -926.40919    -1024.247    13.273352    13.323447    13.348865    1.5802863    1102.0113    2854.9414 
  658000     328.5679   -932.36988            0    -926.6788   -1650.8611    13.273352    13.323447    13.348865    1.2736464    1104.0565    2853.1351 
  659000    299.71374   -930.97606            0   -925.78476   -1986.1308    13.273352    13.323447    13.348865    1.5552945    1106.0472    2851.1879 
  660000    322.89844   -931.33423            0   -925.74135   -983.47336    13.273352    13.323447    13.348865     1.164851    1108.0255    2849.2084 
  661000    268.78514   -931.43532            0   -926.77973   -1897.4383    13.273352    13.323447    13.348865    1.3648162    1110.0192    2847.2685 
  662000    310.58009    -931.0446            0   -925.66509   -593.66059    13.273352    13.323447    13.348865    1.4603556    1111.9993    2845.2936 
  663000    302.91339   -931.18514            0   -925.93842   -1492.0711    13.273352    13.323447    13.348865    1.5829804    1114.0423    2843.4792 
  664000    276.73652   -932.00698            0   -927.21367   -2377.3107    13.273352    13.323447    13.348865    1.0577849    1116.0177     2841.492 
  665000    272.90771   -930.88818            0   -926.16118   -1403.2417    13.273352    13.323447    13.348865    1.2299931    1117.9962    2839.5125 
  666000    309.68418   -931.06526            0   -925.70127   -1458.5064    13.273352    13.323447    13.348865    1.4785506    1119.9685    2837.5174 
  667000     298.7102    -931.2446            0   -926.07068   -2248.5478    13.273352    13.323447    13.348865    1.1755454    1121.9601    2835.5712 
  668000    265.41398   -931.25499            0   -926.65779   -1761.7685    13.273352    13.323447    13.348865    1.7892294    1123.9523    2833.6263 
  669000    313.29734   -930.86445            0   -925.43787   -2611.8967    13.273352    13.323447    13.348865    1.4056677    1125.9339    2831.6546 
  670000    294.08416   -931.35243            0   -926.25864   -2533.6345    13.273352    13.323447    13.348865    1.4444744    1127.9769    2829.8368 
  671000    263.73971   -930.98278            0   -926.41458    -2033.698    13.273352    13.323447    13.348865    1.1333396    1129.9626    2827.8749 
  672000    307.65512   -930.61675            0    -925.2879   -1871.3067    13.273352    13.323447    13.348865    1.5738401    1131.9456    2825.9061 
  673000    286.55854   -931.38721            0   -926.42377   -2448.6057    13.273352    13.323447    13.348865    1.2599923    1133.9246    2823.9275 
  674000    299.37365   -931.32326            0   -926.13785   -1023.7711    13.273352    13.323447    13.348865    1.5172183    1135.9667    2822.1055 
  675000    292.26142   -930.94518            0   -925.88296   -428.96483    13.273352    13.323447    13.348865    1.4899257    1137.9395     2820.111 
  676000    321.53955   -931.19893            0   -925.62959   -1029.0132    13.273352    13.323447    13.348865    1.5930727    1140.0421    2818.4375 
  677000    310.53964   -931.13725            0   -925.75844   -1549.2372    13.273352    13.323447    13.348865    1.4408984    1142.0277    2816.4739 
  678000    284.32126   -931.51314            0   -926.58845   -1980.7123    13.273352    13.323447    13.348865    1.2770539    1143.9976    2814.4716 
  679000    314.99001   -930.68755            0   -925.23165   -1405.7203    13.273352    13.323447    13.348865    1.7178321     1146.021    2812.6007 
  680000    310.49131   -931.35979            0   -925.98181   -1689.3726    13.273352    13.323447    13.348865    1.2878474    1148.0009     2810.623 
  681000    284.47132   -931.17094            0   -926.24365   -1341.9413    13.273352    13.323447    13.348865    1.2355996    1149.9833    2808.6512 
  682000    294.55266   -931.03812            0   -925.93622   -581.81478    13.273352    13.323447    13.348865    1.0504988    1151.9527    2806.6476 
  683000    289.17519   -930.75986            0    -925.7511    314.57253    13.273352    13.323447    13.348865    2.0409228    1153.9592    2804.7345 
  684000    313.44001   -931.19533            0   -925.76628   -453.56838    13.273352    13.323447    13.348865     1.336498    1155.9438     2802.768 
  685000    295.93216   -931.58441            0   -926.45861   -2554.1624    13.273352    13.323447    13.348865    1.1623761    1157.9379    2800.8242 
  686000    308.73421   -930.84046            0   -925.49292     -1377.17    13.273352    13.323447    13.348865    1.6057392    1159.9187    2798.8481 
  687000    310.41116   -931.02839            0    -925.6518   -1047.4991    13.273352    13.323447    13.348865    1.3260213    1161.9489    2796.9911 
  688000    313.19907   -931.59433            0   -926.16945    -2211.292    13.273352    13.323447    13.348865    1.8113885    1163.9283    2795.0114 
  689000    310.03535    -931.1805            0   -925.81042   -1350.9165    13.273352    13.323447    13.348865    1.4632747    1165.9098    2793.0368 
  690000     339.2587   -930.69869            0   -924.82244    -814.8118    13.273352    13.323447    13.348865     1.576618    1167.8907    2791.0609 
  691000    278.28801   -930.95497            0   -926.13478   -895.10847    13.273352    13.323447    13.348865    1.3430725      1169.87     2789.081 
  692000    305.55454    -931.2978            0   -926.00533   -1413.7498    13.273352    13.323447    13.348865    1.4224786     1171.851     2787.105 
  693000    316.46856   -930.28744            0   -924.80593   -165.44406    13.273352    13.323447    13.348865    1.6060554    1173.8305    2785.1257 
  694000    283.66687   -931.28642            0   -926.37307   -2098.2023    13.273352    13.323447    13.348865    1.5979725    1175.8101    2783.1465 
  695000    323.80022   -931.34352            0   -925.73502   -1180.4023    13.273352    13.323447    13.348865    1.4649828    1177.7828    2781.1509 
  696000    339.64107   -931.51247            0    -925.6296   -1753.0988    13.273352    13.323447    13.348865    1.3645732    1179.7547    2779.1536 
  697000    254.15613   -930.97542            0   -926.57322   -2045.3226    13.273352    13.323447    13.348865    1.6560261    1181.7277    2777.1592 
  698000    324.74059   -931.22652            0   -925.60174   -1585.6562    13.273352    13.323447    13.348865    1.6695314    1183.7936    2775.3824 
  699000    303.77263   -931.11213            0   -925.85053   -963.17939    13.273352    13.323447    13.348865    1.6931037    1185.7716     2773.399 
  700000    299.31773   -931.15302            0   -925.96858   -2065.9637    13.273352    13.323447    13.348865    1.5845559     1187.748     2771.412 
  701000    279.25724   -930.70612            0   -925.86915   -1577.2437    13.273352    13.323447    13.348865    1.7663644    1189.7206    2769.4162 
  702000     287.2774   -930.73985            0   -925.76396   -1121.2753    13.273352    13.323447    13.348865    1.6718121    1191.6951    2767.4248 
  703000    260.09146   -931.05645            0   -926.55144   -1788.0892    13.273352    13.323447    13.348865    1.1417763     1193.675     2765.446 
  704000    275.37456   -930.40839            0   -925.63867   -699.21898    13.273352    13.323447    13.348865    1.2871918    1195.6535    2763.4641 
  705000     322.1882   -931.23277            0   -925.65219    -1719.715    13.273352    13.323447    13.348865    1.5108355    1197.6387    2761.4974 
  706000    291.50435   -931.44997            0   -926.40087    -1892.488    13.273352    13.323447    13.348865    1.4684382    1199.6149    2759.5101 
  707000    315.18368   -931.46212            0   -926.00287   -1846.3171    13.273352    13.323447    13.348865    1.9305493    1201.5898    2757.5199 
  708000     324.2282   -931.07459            0   -925.45868   -989.30875    13.273352    13.323447    13.348865    1.3220591    1203.5662    2755.5331 
  709000      320.036   -931.36753            0   -925.82423   -2190.8186    13.273352    13.323447    13.348865    1.6194637    1205.5492    2753.5614 
  710000    274.89701   -931.22679            0   -926.46534   -1302.5365    13.273352    13.323447    13.348865    1.1458491    1207.5269    2751.5777 
  711000    328.80521   -930.85584            0   -925.16066    -1304.187    13.273352    13.323447    13.348865    1.7147886    1209.5056    2749.5962 
  712000    289.97921   -930.93064            0   -925.90795   -2238.2436    13.273352    13.323447    13.348865    1.3235403    1211.4835    2747.6129 
  713000    270.34006   -930.95287            0   -926.27035   -306.80061    13.273352    13.323447    13.348865    1.2870282    1213.4642     2745.636 
  714000     308.8589   -930.29882            0   -924.94912   -640.65532    13.273352    13.323447    13.348865     1.257893    1215.4455    2743.6603 
  715000    266.54788   -930.74712            0   -926.13028   -1429.8119    13.273352    13.323447    13.348865    1.1402436     1217.427    2741.6851 
  716000    302.91933    -931.2336            0   -925.98677    -1430.779    13.273352    13.323447    13.348865    1.7227906    1219.4087    2739.7105 
  717000    298.37729   -929.80304            0   -924.63489   -227.65493    13.273352    13.323447    13.348865    1.4464065    1221.3845    2737.7225 
  718000    319.81505   -931.28898            0   -925.74951    -536.5258    13.273352    13.323447    13.348865     1.308486    1223.3578    2735.7289 
  719000     298.8641   -931.38987            0   -926.21328   -1926.7621    13.273352    13.323447    13.348865    1.1634417    1225.3358     2733.746 
  720000     324.0152   -931.69028            0   -926.07806   -2409.6547    13.273352    13.323447    13.348865    1.4730863    1227.3175    2731.7712 
  721000     295.5252   -930.35973            0   -925.24098   -670.87471    13.273352    13.323447    13.348865     1.904955    1229.3443    2729.8965 
  722000    279.72698   -931.41804            0   -926.57293   -1489.9582    13.273352    13.323447    13.348865    1.4335483    1231.3859    2728.0544 
  723000    286.62031   -930.93462            0   -925.97011   -1879.3795    13.273352    13.323447    13.348865    2.0139689    1233.3656    2726.0745 
  724000    299.96559   -930.88211            0   -925.68645   -1139.8899    13.273352    13.323447    13.348865    1.2967538    1235.3457    2724.0956 
  725000    303.92597    -931.1746            0   -925.91034   -1832.7631    13.273352    13.323447    13.348865    1.3355266    1237.3218    2722.1079 
  726000    284.05815   -930.99068            0   -926.07055   -744.57196    13.273352    13.323447    13.348865    1.3657515    1239.2984    2720.1214 
  727000    281.80823   -930.85255            0   -925.97139    -845.4002    13.273352    13.323447    13.348865    1.5594309    1241.2689    2718.1216 
  728000    315.85433   -930.79209            0   -925.32122   -782.25906    13.273352    13.323447    13.348865    1.6801589    1243.2402    2716.1236 
  729000    282.87002     -931.476            0   -926.57644   -1607.1956    13.273352    13.323447    13.348865    1.2161584    1245.2131     2714.129 
  730000    315.72156   -931.40806            0   -925.93949   -1272.0411    13.273352    13.323447    13.348865    1.3368551    1247.1849    2712.1323 
  731000    322.04047   -931.29505            0   -925.71703     -1754.12    13.273352    13.323447    13.348865    1.5193285    1249.1572    2710.1365 
  732000    293.63236   -931.20772            0   -926.12176   -1655.8587    13.273352    13.323447    13.348865    1.9898548    1251.1274    2708.1365 
  733000    272.06239   -931.60187            0   -926.88952   -2106.9684    13.273352    13.323447    13.348865    1.3690911    1253.0991    2706.1398 
  734000    294.16827   -930.73131            0   -925.63606   -941.22349    13.273352    13.323447    13.348865    1.6434927     1255.071    2704.1436 
  735000    282.02956   -930.80878            0   -925.92379   -1019.1353    13.273352    13.323447    13.348865    1.6538136    1257.0431    2702.1479 
  736000    268.20153   -931.70089            0   -927.05541    -2221.923    13.273352    13.323447    13.348865    1.1316169     1259.013    2700.1475 
  737000    304.22728   -930.81325            0   -925.54377   -276.31172    13.273352    13.323447    13.348865     1.743899    1260.9853    2698.1523 
  738000     302.3011   -931.38514            0   -926.14902   -1938.9891    13.273352    13.323447    13.348865     1.232222    1262.9582    2696.1584 
  739000    301.02298   -931.55769            0   -926.34371    -2430.459    13.273352    13.323447    13.348865    1.3083825    1264.9294    2694.1611 
  740000    334.36918   -931.02851            0   -925.23694   -411.57471    13.273352    13.323447    13.348865    1.0712702     1266.901    2692.1647 
  741000     291.6441   -931.23175            0   -926.18022   -1727.7705    13.273352    13.323447    13.348865    1.4521141    1268.8702    2690.1633 
  742000    287.37252   -931.01852            0   -926.04098    -1487.617    13.273352    13.323447    13.348865    1.1559207    1270.8432    2688.1699 
  743000    311.12127   -931.14141            0   -925.75252   -1217.0551    13.273352    13.323447    13.348865    1.5880882    1272.8158    2686.1758 
  744000    317.08016   -930.87708            0   -925.38498   -781.25753    13.273352    13.323447    13.348865    1.6644543     1274.789    2684.1831 
  745000    274.69652   -931.23268            0   -926.47471   -780.11538    13.273352    13.323447    13.348865    1.6306819    1276.7608    2682.1875 
  746000    314.61852   -930.95761            0   -925.50815   -1066.6158    13.273352    13.323447    13.348865    1.6771526     1278.731    2680.1885 
  747000    280.01585   -930.43803            0   -925.58792   -694.06347    13.273352    13.323447    13.348865    1.7982898    1280.7029    2678.1933 
  748000    278.59693   -931.09443            0    -926.2689   -2035.8289    13.273352    13.323447    13.348865    1.4997705    1282.6745    2676.1974 
  749000    315.69593   -930.41503            0   -924.94691    -199.2631    13.273352    13.323447    13.348865     1.460169    1284.6469    2674.2034 
  750000    305.96155    -931.0443            0   -925.74479   -1637.4337    13.273352    13.323447    13.348865    1.3541518     1286.626    2672.2233 
  751000     314.3631   -931.58375            0   -926.13872   -2673.3946    13.273352    13.323447    13.348865    1.5220304    1288.5975    2670.2274 
  752000      301.198   -930.34653            0   -925.12952    -2493.608    13.273352    13.323447    13.348865    1.6624982    1290.5698    2668.2334 
  753000    320.81718   -931.31455            0   -925.75772   -3058.2728    13.273352    13.323447    13.348865    1.2799131    1292.5421    2666.2393 
  754000    310.99193   -931.48195            0    -926.0953   -2264.0821    13.273352    13.323447    13.348865    1.3751397    1294.5147    2664.2459 
  755000    327.58882   -930.89834            0   -925.22422   -555.60371    13.273352    13.323447    13.348865    1.3056705    1296.4858    2662.2495 
  756000    311.64731   -931.14393            0   -925.74593   -1853.7308    13.273352    13.323447    13.348865     1.229675    1298.4586    2660.2566 
  757000     259.2479   -930.74847            0   -926.25807   -1217.2843    13.273352    13.323447    13.348865     1.702461    1300.4297    2658.2603 
  758000    313.21683   -930.56657            0   -925.14138   -1277.3775    13.273352    13.323447    13.348865    1.7541747    1302.4021    2656.2669 
  759000    264.54089   -930.91436            0   -926.33228   -1447.2653    13.273352    13.323447    13.348865    2.1034762    1304.3742    2654.2729 
  760000    288.20535   -931.07281            0   -926.08084   -3665.3803    13.273352    13.323447    13.348865    1.4272305    1306.3461    2652.2784 
  761000    306.18571   -930.70525            0   -925.40185   -2092.5457    13.273352    13.323447    13.348865    1.2659726    1308.3221    2650.2925 
  762000     260.3571   -931.34602            0   -926.83641   -2196.6481    13.273352    13.323447    13.348865      1.74461    1310.2955    2648.3011 
  763000    301.85063   -931.11055            0   -925.88224   -1767.0335    13.273352    13.323447    13.348865    1.4047144    1312.2669     2646.306 
  764000    312.58937   -931.02243            0   -925.60811   -1700.0941    13.273352    13.323447    13.348865    1.4058749    1314.2388    2644.3118 
  765000    283.25403   -931.79512            0   -926.88891   -2316.5464    13.273352    13.323447    13.348865     1.236998     1316.209    2642.3144 
  766000    314.24217   -931.42833            0   -925.98539   -1551.6641    13.273352    13.323447    13.348865    1.2960074    1318.1809    2640.3204 
  767000     313.1963   -931.19079            0   -925.76597   -1123.7524    13.273352    13.323447    13.348865    1.1827403    1320.1534    2638.3275 
  768000    251.88426    -931.2749            0   -926.91205    -1828.837    13.273352    13.323447    13.348865    1.2025475    1322.1272    2636.3375 
  769000    287.24715   -930.88741            0   -925.91204   -812.88126    13.273352    13.323447    13.348865     1.559846    1324.0977    2634.3409 
  770000     317.6317   -931.28588            0   -925.78423   -931.57486    13.273352    13.323447    13.348865    1.4955985    1326.0701    2632.3482 
  771000    277.87738   -931.60392            0   -926.79085   -2087.7818    13.273352    13.323447    13.348865    1.1948171    1328.0419    2630.3542 
  772000    296.97668   -931.10378            0   -925.95989   -860.10328    13.273352    13.323447    13.348865    1.5622425    1330.0145    2628.3621 
  773000    302.55169   -930.99836            0   -925.75791   -1286.7767    13.273352    13.323447    13.348865    1.3298645    1331.9878    2626.3712 
  774000      250.471   -931.01286            0   -926.67449   -2105.4459    13.273352    13.323447    13.348865    1.3122626    1333.9603    2624.3789 
  775000    290.36054   -931.00617            0   -925.97687   -1873.3287    13.273352    13.323447    13.348865    1.3710825    1335.9319    2622.3848 
  776000    315.46379    -931.0093            0    -925.5452   -543.23999    13.273352    13.323447    13.348865    1.3971373    1337.9045    2620.3928 
  777000     276.7943    -931.4434            0   -926.64908   -2503.1581    13.273352    13.323447    13.348865    1.6364414    1339.8766    2618.3998 
  778000    301.85851   -930.41891            0   -925.19047   -336.62019    13.273352    13.323447    13.348865    1.1154007    1341.8517     2616.413 
  779000    310.52446   -931.31909            0   -925.94054   -1290.8117    13.273352    13.323447    13.348865    1.3798691    1343.8242    2614.4209 
  780000    261.20552   -930.93833            0   -926.41403    -1147.326    13.273352    13.323447    13.348865    1.6571219    1345.7955    2612.4266 
  781000    337.20207   -930.91603            0    -925.0754   -685.22959    13.273352    13.323447    13.348865    1.5126129    1347.7692     2610.437 
  782000    320.03709     -931.468            0   -925.92469   -876.30731    13.273352    13.323447    13.348865    1.4305155     1349.743    2608.4477 
  783000    272.58045   -930.80697            0   -926.08565   -1836.4054    13.273352    13.323447    13.348865    1.3488398    1351.7168    2606.4583 
  784000    353.67859   -930.83221            0   -924.70619    227.60476    13.273352    13.323447    13.348865    1.2585987    1353.6889    2604.4658 
  785000     295.4902    -930.8255            0   -925.70736   -1871.1524    13.273352    13.323447    13.348865    1.5496544    1355.6632    2602.4776 
  786000    302.19407   -931.43295            0   -926.19869   -669.15672    13.273352    13.323447    13.348865    1.4989202    1357.6409    2600.4958 
  787000    323.67374   -931.08112            0   -925.47482   -509.99603    13.273352    13.323447    13.348865    1.7126194    1359.6128     2598.503 
  788000    311.62056   -931.01584            0   -925.61831   -409.06711    13.273352    13.323447    13.348865    1.3562588    1361.5832    2596.5075 
  789000    261.32173   -930.76564            0   -926.23933   -1502.8791    13.273352    13.323447    13.348865     1.197232    1363.5542    2594.5132 
  790000    297.97776   -930.62303            0    -925.4618   -81.641951    13.273352    13.323447    13.348865     1.414086    1365.5291    2592.5263 
  791000    327.12271   -930.39183            0   -924.72579   -657.50973    13.273352    13.323447    13.348865    1.9273085    1367.5045    2590.5404 
  792000    305.21265   -931.50543            0   -926.21889   -1517.5832    13.273352    13.323447    13.348865    1.9282648    1369.4833     2588.561 
  793000    298.47561   -930.97491            0   -925.80505   -1757.9223    13.273352    13.323447    13.348865    1.9085722    1371.4538    2586.5657 
  794000    337.18668   -931.04028            0   -925.19992   -1292.4545    13.273352    13.323447    13.348865    1.3807578    1373.4366    2584.5939 
  795000    253.31273   -930.81258            0   -926.42499   -1368.2276    13.273352    13.323447    13.348865    1.3160657    1375.4166    2582.6167 
  796000    301.66505   -930.68973            0   -925.46463   -502.96898    13.273352    13.323447    13.348865    1.3504538    1377.3943    2580.6353 
  797000     289.6889   -931.35936            0   -926.34169     -2927.96    13.273352    13.323447    13.348865    1.3694051    1379.3768    2578.6627 
  798000    299.29227    -931.5072            0    -926.3232   -2351.3044    13.273352    13.323447    13.348865    1.5546021    1381.3524    2576.6775 
  799000    329.12321   -931.31246            0   -925.61177    -1077.856    13.273352    13.323447    13.348865    1.5471056    1383.3337    2574.7026 
  800000    292.25862   -931.09979            0   -926.03762   -1062.7831    13.273352    13.323447    13.348865    1.4001668    1385.3118     2572.722 
  801000      310.299   -931.41733            0   -926.04269   -1433.4726    13.273352    13.323447    13.348865    1.1598103    1387.2876    2570.7369 
  802000    323.97475   -931.39945            0   -925.78792   -1080.0512    13.273352    13.323447    13.348865    1.3789443    1389.2664    2568.7576 
  803000    290.27484   -930.86144            0   -925.83363   -1110.9987    13.273352    13.323447    13.348865    1.4238032    1391.2433    2566.7746 
  804000     285.5563   -931.61109            0   -926.66501   -1792.3102    13.273352    13.323447    13.348865    1.3139896    1393.2193      2564.79 
  805000    339.31347   -931.28149            0   -925.40429   -1970.5242    13.273352    13.323447    13.348865    1.3756077    1395.1953    2562.8055 
  806000    302.56091   -931.13988            0   -925.89927   -1422.8802    13.273352    13.323447    13.348865    1.2191299    1397.1762    2560.8301 
  807000    284.89452   -931.35361            0   -926.41899   -1546.3511    13.273352    13.323447    13.348865    1.7835715    1399.1551    2558.8508 
  808000    317.71247   -930.46839            0   -924.96533   -26.894199    13.273352    13.323447    13.348865    1.9656533    1401.1299    2556.8641 
  809000    300.11958   -931.44602            0   -926.24769   -1709.3784    13.273352    13.323447    13.348865    1.4460082    1403.1051    2554.8782 
  810000    294.48981   -930.97313            0   -925.87232   -3154.0394    13.273352    13.323447    13.348865    1.6252997     1405.079    2552.8901 
  811000    336.12198   -930.92193            0   -925.10001   -794.52109    13.273352    13.323447    13.348865    1.3786805    1407.0567    2550.9087 
  812000    296.98487   -931.04385            0   -925.89981   -1468.4911    13.273352    13.323447    13.348865    1.6991334     1409.032    2548.9231 
  813000    308.83622   -931.62419            0   -926.27488   -1287.4824    13.273352    13.323447    13.348865     1.477707    1411.0054    2546.9341 
  814000    328.53417   -931.34474            0   -925.65424    -1213.676    13.273352    13.323447    13.348865    1.3249244    1412.9796    2544.9464 
  815000    344.22149   -931.47279            0   -925.51058   -1719.4242    13.273352    13.323447    13.348865    1.4812181    1414.9533     2542.958 
  816000    289.37962   -931.49547            0   -926.48317   -2059.6002    13.273352    13.323447    13.348865    1.2406257    1416.9278    2540.9711 
  817000    305.91595   -931.07666            0   -925.77793   -1519.9429    13.273352    13.323447    13.348865    1.2471235    1418.9039     2538.987 
  818000    296.80212   -930.94867            0    -925.8078   -2082.3524    13.273352    13.323447    13.348865    1.5990775    1420.8798    2537.0027 
  819000    286.93585   -930.92948            0    -925.9595   -1975.6069    13.273352    13.323447    13.348865    1.2027015    1422.8538    2535.0149 
  820000     303.5367   -931.37727            0   -926.11975   -2252.8343    13.273352    13.323447    13.348865    1.4321598    1424.8325    2533.0356 
  821000    278.88039   -930.86231            0   -926.03187   -1138.6783    13.273352    13.323447    13.348865    1.2766379    1426.8075    2531.0496 
  822000    317.49224   -930.71554            0    -925.2163   -543.38936    13.273352    13.323447    13.348865     1.223561    1428.7827    2529.0642 
  823000    284.75324   -931.43141            0   -926.49924    -2348.661    13.273352    13.323447    13.348865    1.3079002    1430.7588    2527.0802 
  824000    308.45037   -931.30414            0   -925.96151    -2121.069    13.273352    13.323447    13.348865    1.4299298    1432.7362    2525.0987 
  825000    304.50089   -930.83111            0    -925.5569   -1695.4499    13.273352    13.323447    13.348865    1.6452441    1434.7125    2523.1151 
  826000    295.12584   -931.09504            0   -925.98321   -1451.5526    13.273352    13.323447    13.348865    1.4327059    1436.6911    2521.1356 
  827000    276.81706   -931.31133            0   -926.51662    -1861.287    13.273352    13.323447    13.348865     1.695178    1438.6677    2519.1527 
  828000    303.39952   -931.34652            0   -926.09138   -1443.0207    13.273352    13.323447    13.348865    1.4924022    1440.6442    2517.1695 
  829000    288.64729   -930.55186            0   -925.55224   -984.66231    13.273352    13.323447    13.348865    1.6275572    1442.6227    2515.1899 
  830000    288.18542   -931.72699            0   -926.73537   -1134.2574    13.273352    13.323447    13.348865    1.4224995    1444.6397    2513.2772 
  831000    286.48131   -931.29603            0   -926.33393   -914.95368    13.273352    13.323447    13.348865    1.1992089    1446.6189    2511.2987 
  832000    322.25327   -931.05431            0    -925.4726   -592.57742    13.273352    13.323447    13.348865    1.2328678    1448.5983    2509.3205 
  833000    296.07574    -931.5739            0   -926.44562   -1429.5385    13.273352    13.323447    13.348865      1.48258    1450.5789    2507.3444 
  834000    301.41117   -931.50374            0   -926.28304   -2846.1616    13.273352    13.323447    13.348865    1.6021854    1452.5566    2505.3633 
  835000    286.25516   -930.68747            0   -925.72928    -877.7778    13.273352    13.323447    13.348865    1.2150883    1454.5323    2503.3787 
  836000    273.75863   -930.75894            0    -926.0172   -581.80448    13.273352    13.323447    13.348865    1.3801369     1456.502    2501.3839 
  837000    260.67435   -931.70925            0   -927.19415   -2336.3056    13.273352    13.323447    13.348865    1.2359335    1458.4753    2499.3953 
  838000    307.24771   -931.35531            0   -926.03352   -1635.4875    13.273352    13.323447    13.348865    1.3425396    1460.4495    2497.4083 
  839000     288.8394   -930.68237            0   -925.67942    42.152359    13.273352    13.323447    13.348865    1.4705863    1462.4234    2495.4206 
  840000    269.90606   -931.00719            0   -926.33219   -1412.2762    13.273352    13.323447    13.348865    1.4605372    1464.3955    2493.4301 
  841000    284.91263   -931.27786            0   -926.34293   -1632.7832    13.273352    13.323447    13.348865    1.3268639    1466.3671    2491.4389 
  842000    301.70897   -930.70037            0   -925.47451   -6.9443329    13.273352    13.323447    13.348865    1.3742442    1468.3417    2489.4526 
  843000     272.3308   -931.06331            0    -926.3463   -2311.9578    13.273352    13.323447    13.348865    1.4733685    1470.3463    2487.5172 
  844000    270.49545   -931.45023            0   -926.76502   -2521.4242    13.273352    13.323447    13.348865    1.3295052    1472.3454    2485.5724 
  845000    308.65912   -930.89464            0    -925.5484   -1746.4476    13.273352    13.323447    13.348865    1.4272554    1474.3162    2483.5796 
  846000    329.58441   -931.62844            0   -925.91976   -2126.7533    13.273352    13.323447    13.348865    1.3010221    1476.3801    2481.7435 
  847000    305.96471   -931.85411            0   -926.55454   -2555.1817    13.273352    13.323447    13.348865      1.35498    1478.3661    2479.7761 
  848000    321.23956   -931.53012            0   -925.96597   -1457.8523    13.273352    13.323447    13.348865    1.2483558    1480.3622    2477.8254 
  849000    317.34317   -931.19116            0   -925.69451   -1331.3116    13.273352    13.323447    13.348865     1.455999    1482.3304    2475.8282 
  850000    321.44209   -931.59479            0   -926.02714   -2003.9481    13.273352    13.323447    13.348865    1.1473685      1484.34       2473.9 
  851000    252.21508   -930.71549            0   -926.34691   -2071.8849    13.273352    13.323447    13.348865    1.3793457    1486.3201    2471.9226 
  852000    309.94225   -930.53046            0   -925.16199   -1997.5371    13.273352    13.323447    13.348865    1.3229367    1488.2994    2469.9437 
  853000    290.51218   -931.15671            0   -926.12479   -1683.6998    13.273352    13.323447    13.348865     1.367605    1490.2892    2467.9822 
  854000    300.54759   -931.21356            0   -926.00781   -1564.8509    13.273352    13.323447    13.348865     1.198464    1492.2657    2465.9987 
  855000    314.44811    -930.8522            0   -925.40569    -1987.445    13.273352    13.323447    13.348865    1.3108652     1494.286    2464.0876 
  856000    296.83528   -931.29212            0   -926.15067   -369.81294    13.273352    13.323447    13.348865    1.5680113    1496.2653    2462.1084 
  857000    277.26733   -931.10965            0   -926.30714   -2074.8763    13.273352    13.323447    13.348865    1.6030146     1498.328    2460.2665 
  858000    316.33538   -930.83114            0   -925.35194   -912.88655    13.273352    13.323447    13.348865    1.4396483    1500.3373    2458.3363 
  859000    282.72837   -930.96038            0   -926.06329    -1039.896    13.273352    13.323447    13.348865    1.4389708    1502.3083    2456.3433 
  860000    276.75675   -931.16554            0   -926.37188   -1391.4576    13.273352    13.323447    13.348865    1.2444275    1504.2988    2454.3822 
  861000    323.93482    -930.8836            0   -925.27277   -1681.3815    13.273352    13.323447    13.348865    1.9981096    1506.3093    2452.4536 
  862000    262.28875   -930.73606            0   -926.19299   -1001.0059    13.273352    13.323447    13.348865    1.2681269    1508.2831    2450.4652 
  863000    272.17531   -930.98082            0   -926.26651   -789.16862    13.273352    13.323447    13.348865    1.9157267    1510.2551    2448.4738 
  864000    279.84107   -930.63612            0   -925.78903    -579.9764    13.273352    13.323447    13.348865    1.6526626     1512.281    2446.5698 
  865000    298.39123   -931.03758            0   -925.86918    -771.7245    13.273352    13.323447    13.348865    1.2795008    1514.2497    2444.5731 
  866000    288.45667   -930.95048            0   -925.95416   -947.66653    13.273352    13.323447    13.348865    1.6642081    1516.2245    2442.5861 
  867000    264.51919   -930.72091            0   -926.13921   -1119.7293    13.273352    13.323447    13.348865    1.5403612    1518.1962    2440.5944 
  868000    300.45764   -931.17844            0   -925.97425   -2038.8797    13.273352    13.323447    13.348865    1.7415247     1520.212    2438.6735 
  869000    325.20272   -930.91401            0   -925.28122   -581.42543    13.273352    13.323447    13.348865     1.474342    1522.1986    2436.7055 
  870000    286.44065   -931.54874            0   -926.58734   -2568.3049    13.273352    13.323447    13.348865    1.1684293    1524.1679    2434.7098 
  871000    313.72329   -931.30045            0   -925.86649   -1372.8127    13.273352    13.323447    13.348865    1.6646928    1526.1853    2432.7908 
  872000    323.66325   -931.24845            0   -925.64233    -2877.554    13.273352    13.323447    13.348865    1.3788684    1528.1567    2430.7985 
  873000    279.52723   -930.91353            0   -926.07188   -2033.4698    13.273352    13.323447    13.348865    1.1845611     1530.149    2428.8393 
  874000    282.89864   -931.59891            0   -926.69886   -2380.5323    13.273352    13.323447    13.348865    1.2844578    1532.1244    2426.8534 
  875000    303.71037   -931.10283            0    -925.8423   -1273.0995    13.273352    13.323447    13.348865    1.4831657    1534.1139    2424.8898 
  876000    315.00911   -931.11402            0    -925.6578   -1425.9767    13.273352    13.323447    13.348865    1.3732983    1536.0915    2422.9072 
  877000    282.89752    -931.7767            0   -926.87667   -1925.4795    13.273352    13.323447    13.348865    1.0749861    1538.0993    2420.9723 
  878000    296.78607   -930.63506            0   -925.49447    -482.0799    13.273352    13.323447    13.348865    1.2642122    1540.0747    2418.9863 
  879000    303.81604   -931.30193            0   -926.03957   -1647.9177    13.273352    13.323447    13.348865    1.1937939    1542.0535    2417.0055 
  880000     252.8137   -930.80532            0   -926.42637   -1234.2666    13.273352    13.323447    13.348865    1.3211489    1544.0793    2415.0984 
  881000    304.89668   -930.54608            0     -925.265   -1674.1302    13.273352    13.323447    13.348865    1.7618079    1546.0553    2413.1132 
  882000    299.08148   -931.24133            0   -926.06098   -1747.9487    13.273352    13.323447    13.348865    1.1206753    1548.0489    2411.1554 
  883000    263.66466   -930.60902            0   -926.04212   -1730.7036    13.273352    13.323447    13.348865    1.8475702    1550.0349    2409.1858 
  884000    326.98536   -931.08644            0   -925.42277   -788.55677    13.273352    13.323447    13.348865    1.5825192    1552.0247    2407.2219 
  885000    310.38925   -931.03349            0   -925.65728    -757.9698    13.273352    13.323447    13.348865    1.3688523    1553.9931     2405.225 
  886000    310.31413   -931.78939            0   -926.41448   -1879.2588    13.273352    13.323447    13.348865    1.0622843    1556.0343    2403.3405 
  887000    304.00003   -930.43856            0   -925.17302    -812.6585    13.273352    13.323447    13.348865    1.4734156    1558.0169    2401.3653 
  888000    288.18545   -931.29643            0   -926.30481   -1807.8956    13.273352    13.323447    13.348865    1.4639866    1559.9865    2399.3701 
  889000    300.76186   -931.28701            0   -926.07756   -1965.8379    13.273352    13.323447    13.348865    1.4767137    1562.0168    2397.4682 
  890000    296.82083    -930.5047            0   -925.36351   -667.79887    13.273352    13.323447    13.348865    1.5048561    1563.9848    2395.4703 
  891000    293.03077    -931.6355            0   -926.55995   -2662.7514    13.273352    13.323447    13.348865    1.3979467    1565.9563    2393.4781 
  892000    308.55363   -931.48949            0   -926.14508   -2237.2363    13.273352    13.323447    13.348865    1.6056741    1567.9294    2391.4883 
  893000    324.82996   -931.50014            0   -925.87381   -1239.3399    13.273352    13.323447    13.348865    1.4319791    1569.9336    2389.5458 
  894000    306.84829   -931.38479            0   -926.06991   -1235.1013    13.273352    13.323447    13.348865      1.49621    1571.9222    2387.5795 
  895000    284.57774   -931.54595            0   -926.61682   -2027.5324    13.273352    13.323447    13.348865     1.160122    1573.8962    2385.5911 
  896000    295.88244   -930.53788            0   -925.41294   -120.39186    13.273352    13.323447    13.348865    1.5285915    1575.9028     2383.652 
  897000    271.17706   -930.69561            0   -925.99859   -1379.4108    13.273352    13.323447    13.348865    1.1942057    1577.8788    2381.6664 
  898000    283.36157   -931.02177            0   -926.11371   -1289.2025    13.273352    13.323447    13.348865    1.1169114    1579.8543    2379.6803 
  899000    320.96687   -931.25864            0   -925.69922   -1357.9277    13.273352    13.323447    13.348865     1.422538    1581.8338    2377.7001 
  900000    366.04297   -931.44456            0   -925.10438   -566.15227    13.273352    13.323447    13.348865    1.8295932    1583.8107     2375.716 
  901000    260.04939   -930.89061            0   -926.38633   -2534.6127    13.273352    13.323447    13.348865    1.2056212    1585.7916    2373.7379 
  902000    302.69938   -930.91515            0   -925.67214   -1584.6065    13.273352    13.323447    13.348865    1.4232295    1587.7807    2371.7722 
  903000    351.35682   -930.68407            0   -924.59826   -1131.0952    13.273352    13.323447    13.348865    1.4700932    1589.8236    2369.8864 
  904000    285.52375    -931.2178            0   -926.27228   -1989.3204    13.273352    13.323447    13.348865     1.353616    1591.8021    2367.9046 
  905000    291.70836   -931.11999            0   -926.06735    -400.0976    13.273352    13.323447    13.348865    1.4424441    1593.7867    2365.9317 
  906000    327.76738   -931.01788            0   -925.34067   -1085.8357    13.273352    13.323447    13.348865    1.6819062    1595.7639     2363.948 
  907000    305.31481   -931.97629            0   -926.68798   -2667.9578    13.273352    13.323447    13.348865    1.8740277    1597.7415    2361.9648 
  908000    302.29036   -930.93018            0   -925.69425   -905.63939    13.273352    13.323447    13.348865    1.4937209    1599.7202    2359.9832 
  909000    332.91546   -931.54546            0   -925.77908   -1844.5719    13.273352    13.323447    13.348865    1.5812564    1601.6991     2358.002 
  910000    272.70552   -931.52785            0   -926.80435   -2238.4282    13.273352    13.323447    13.348865     1.576009    1603.6761     2356.018 
  911000    290.57814    -930.7877            0   -925.75464   -1026.7063    13.273352    13.323447    13.348865    1.6640578    1605.6523    2354.0327 
  912000    317.41444   -931.38608            0   -925.88819   -1466.9752    13.273352    13.323447    13.348865    1.2704241    1607.6281     2352.047 
  913000    267.71937   -931.55394            0   -926.91681   -1983.9928    13.273352    13.323447    13.348865    1.4350743    1609.6043    2350.0619 
  914000    301.72351    -931.1885            0   -925.96239   -1518.5468    13.273352    13.323447    13.348865    1.4522053    1611.5812    2348.0778 
  915000    322.39361   -931.31497            0   -925.73084   -1713.6997    13.273352    13.323447    13.348865    1.3893687    1613.5604     2346.097 
  916000    307.61419   -931.85658            0   -926.52844    -2189.659    13.273352    13.323447    13.348865    1.3730067    1615.5374     2344.113 
  917000    288.48123   -930.88888            0   -925.89213    -1050.682    13.273352    13.323447    13.348865    1.6084308    1617.5144    2342.1291 
  918000    284.03649   -930.47648            0   -925.55672    476.48068    13.273352    13.323447    13.348865    1.6341717    1619.4919    2340.1459 
  919000    277.99652   -931.11633            0   -926.30119   -1463.8343    13.273352    13.323447    13.348865    1.4882731    1621.4692    2338.1625 
  920000     342.9862    -931.1096            0   -925.16878   -1309.5438    13.273352    13.323447    13.348865    1.3571411     1623.447    2336.1798 
  921000    317.22614   -931.29015            0   -925.79553    -1102.719    13.273352    13.323447    13.348865    1.3051429    1625.4294    2334.2037 
  922000    269.89657   -930.96493            0   -926.29009    -924.5704    13.273352    13.323447    13.348865    1.4417394    1627.4072    2332.2211 
  923000    324.81389   -930.53714            0   -924.91108   -243.37994    13.273352    13.323447    13.348865    1.7792756    1629.3865    2330.2405 
  924000    260.96333   -930.13178            0   -925.61167    145.95811    13.273352    13.323447    13.348865     1.510078    1631.3657    2328.2597 
  925000    271.22428   -930.94315            0   -926.24531    -828.1268    13.273352    13.323447    13.348865    1.2694921    1633.3465    2326.2814 
  926000    303.36546   -931.14179            0   -925.88724   -196.67245    13.273352    13.323447    13.348865    1.5412149    1635.3262    2324.3014 
  927000    313.46839   -930.81383            0   -925.38429   -401.62823    13.273352    13.323447    13.348865    1.2718213    1637.3099    2322.3272 
  928000    260.58214   -930.99655            0   -926.48304   -553.52786    13.273352    13.323447    13.348865    1.4637876    1639.2891    2320.3463 
  929000    309.31082   -931.22368            0   -925.86616   -379.08431    13.273352    13.323447    13.348865    1.6243626    1641.2693    2318.3671 
  930000    299.13323   -930.92018            0   -925.73893   -1473.1948    13.273352    13.323447    13.348865    1.3164912      1643.25    2316.3886 
  931000    238.78602   -931.27601            0   -927.14003   -2904.7936    13.273352    13.323447    13.348865     1.341332    1645.2273    2314.4051 
  932000    317.36331   -931.40367            0   -925.90667   -866.53889    13.273352    13.323447    13.348865    1.2178099    1647.2018     2312.418 
  933000     288.8279   -930.67716            0   -925.67442   -1239.0137    13.273352    13.323447    13.348865    1.3838026    1649.1815     2310.438 
  934000     270.6964   -931.55985            0   -926.87115   -2512.4695    13.273352    13.323447    13.348865     1.302278    1651.1608    2308.4574 
  935000    297.11068    -931.1592            0   -926.01299   -1343.3036    13.273352    13.323447    13.348865    1.1901304     1653.137    2306.4725 
  936000    307.67245   -931.17906            0   -925.84991   -1424.7024    13.273352    13.323447    13.348865    1.5111016     1655.116    2304.4917 
  937000    296.42475   -931.37969            0   -926.24536   -1375.4415    13.273352    13.323447    13.348865    1.4727861    1657.0944    2302.5099 
  938000    272.90348   -931.17905            0   -926.45213   -1086.5636    13.273352    13.323447    13.348865    1.4570169    1659.0647     2300.517 
  939000    311.91916   -930.77053            0   -925.36782    -143.9278    13.273352    13.323447    13.348865    1.5720039    1661.0376    2298.5276 
  940000    276.24787    -931.0237            0   -926.23885    -1579.226    13.273352    13.323447    13.348865    1.3105317    1663.0144    2296.5437 
  941000    302.19599   -931.38899            0    -926.1547   -1250.8794    13.273352    13.323447    13.348865    1.2774521    1664.9922    2294.5611 
  942000    305.52038    -930.9305            0   -925.63862    -779.3759    13.273352    13.323447    13.348865    1.2648999    1666.9768     2292.588 
  943000    325.67344   -930.87275            0   -925.23181   -86.226969    13.273352    13.323447    13.348865     1.540504    1668.9595    2290.6122 
  944000    286.08641    -931.4172            0   -926.46194   -2403.5798    13.273352    13.323447    13.348865    1.5065783    1670.9428    2288.6373 
  945000    309.40647   -930.92368            0   -925.56449   -1487.0002    13.273352    13.323447    13.348865    1.2620065    1672.9143    2286.6462 
  946000    304.74467   -930.68332            0   -925.40488    186.11407    13.273352    13.323447    13.348865    1.7627251    1674.8861    2284.6555 
  947000    286.02452   -930.91267            0   -925.95848   -1443.6442    13.273352    13.323447    13.348865     1.545349    1676.8579    2282.6649 
  948000    270.48207   -931.03502            0   -926.35004   -1949.4961    13.273352    13.323447    13.348865    1.2215821    1678.8331    2280.6789 
  949000    323.88777   -930.78401            0     -925.174   -968.74213    13.273352    13.323447    13.348865    1.2440444    1680.8066    2278.6907 
  950000    279.67201   -931.02742            0   -926.18326   -737.29743    13.273352    13.323447    13.348865    1.4576124    1682.7851    2276.7092 
  951000    303.21581   -931.37424            0   -926.12228   -855.43124    13.273352    13.323447    13.348865    1.4077002    1684.7626    2274.7265 
  952000    307.41956   -930.64611            0   -925.32134   -889.04396    13.273352    13.323447    13.348865    1.6291194    1686.7405    2272.7443 
  953000     288.0465   -931.03207            0   -926.04285   -1479.6915    13.273352    13.323447    13.348865    1.3605773    1688.7202    2270.7644 
  954000    273.75516   -931.12752            0   -926.38584   -2413.1636    13.273352    13.323447    13.348865    1.1870174    1690.6935     2268.776 
  955000    361.53345   -931.53827            0    -925.2762   -2204.4986    13.273352    13.323447    13.348865    1.1326673    1692.6716    2266.7942 
  956000    282.98499   -930.77397            0   -925.87242   -529.33544    13.273352    13.323447    13.348865    1.0746957    1694.6521    2264.8155 
  957000    283.04406   -931.11436            0    -926.2118   -2671.9009    13.273352    13.323447    13.348865    1.7019775    1696.6256    2262.8274 
  958000    304.86375   -930.70971            0   -925.42921   -1286.9966    13.273352    13.323447    13.348865    1.3523789    1698.6053    2260.8476 
  959000     298.6123   -931.13409            0   -925.96187   -2081.3156    13.273352    13.323447    13.348865    1.4375698    1700.5904     2258.875 
  960000    286.09744   -931.34572            0   -926.39026   -2078.3457    13.273352    13.323447    13.348865    1.3893222    1702.5684    2256.8929 
  961000    307.35833    -931.0639            0   -925.74019   -2051.8148    13.273352    13.323447    13.348865    1.4587625     1704.543    2254.9064 
  962000    279.89447   -930.82957            0   -925.98155   -2409.9045    13.273352    13.323447    13.348865    1.2882489    1706.5201    2252.9233 
  963000    292.68235    -931.5741            0   -926.50459     -1693.09    13.273352    13.323447    13.348865    1.3225531     1708.495    2250.9373 
  964000    299.23008   -930.83202            0    -925.6491     -1478.28    13.273352    13.323447    13.348865    1.2895557      1710.47    2248.9514 
  965000    303.11591   -930.90216            0   -925.65194   -498.56041    13.273352    13.323447    13.348865    1.7123074    1712.4442    2246.9643 
  966000    258.48593   -931.03564            0   -926.55844   -897.59389    13.273352    13.323447    13.348865     1.454039    1714.4208    2244.9805 
  967000     313.9287   -931.25333            0   -925.81581   -1566.2719    13.273352    13.323447    13.348865    1.4165479    1716.4014    2243.0021 
  968000    317.55303   -931.09965            0   -925.59936   -399.25912    13.273352    13.323447    13.348865    1.3607261    1718.3789    2241.0195 
  969000    257.75423   -931.17589            0   -926.71137   -1274.8997    13.273352    13.323447    13.348865    1.1643069    1720.3585    2239.0396 
  970000    303.58906   -930.84425            0   -925.58582    -99.43955    13.273352    13.323447    13.348865    1.5181121     1722.336    2237.0571 
  971000    286.85949   -930.83379            0   -925.86513   -1517.8015    13.273352    13.323447    13.348865    1.7184992    1724.3166    2235.0786 
  972000    269.40693   -931.38165            0   -926.71529   -2375.5772    13.273352    13.323447    13.348865    1.5918765    1726.2927    2233.0943 
  973000    298.13112   -931.95532            0   -926.79143   -2075.4931    13.273352    13.323447    13.348865    1.2617673    1728.2729    2231.1152 
  974000    296.70212   -930.93454            0   -925.79541   -1075.6887    13.273352    13.323447    13.348865     1.428967    1730.2496    2229.1317 
  975000    301.23727   -930.93886            0   -925.72117   -177.71213    13.273352    13.323447    13.348865    1.3494741    1732.2267    2227.1486 
  976000    261.60039   -931.32112            0   -926.78998   -1518.9225    13.273352    13.323447    13.348865    1.6069874    1734.2044    2225.1664 
  977000    295.56039   -930.73756            0    -925.6182   -12.218971    13.273352    13.323447    13.348865    1.4252821    1736.1891    2223.1931 
  978000    287.41471   -930.94599            0   -925.96772   -1216.5507    13.273352    13.323447    13.348865    1.4106969    1738.1685    2221.2131 
  979000    249.64091   -931.12755            0   -926.80356   -1770.3791    13.273352    13.323447    13.348865    1.2053685    1740.1457    2219.2301 
  980000     288.3077    -930.9797            0   -925.98596   -849.56478    13.273352    13.323447    13.348865     1.538113    1742.1228    2217.2472 
  981000    290.20309   -930.64753            0   -925.62096   -735.46289    13.273352    13.323447    13.348865    1.8606443    1744.1005    2215.2651 
  982000    281.06642   -931.65946            0   -926.79115   -1987.5098    13.273352    13.323447    13.348865    1.3784612    1746.0784    2213.2831 
  983000     299.0537   -930.76631            0   -925.58644    -1315.716    13.273352    13.323447    13.348865     1.763976    1748.0553    2211.2999 
  984000    305.59616    -931.1858            0   -925.89261   -1627.3316    13.273352    13.323447    13.348865    1.2188477    1750.0319    2209.3163 
  985000    255.23021   -930.85178            0   -926.43098   -1842.8574    13.273352    13.323447    13.348865    1.2569011    1752.0092    2207.3337 
  986000    300.25798    -930.3812            0   -925.18047   -1082.2118    13.273352    13.323447    13.348865    1.1523974    1753.9861    2205.3504 
  987000    303.88759     -931.158            0    -925.8944   -1870.8522    13.273352    13.323447    13.348865    1.5139339    1755.9647    2203.3695 
  988000    320.25511   -931.55619            0    -926.0091   -1916.5655    13.273352    13.323447    13.348865    1.2142018    1757.9414    2201.3861 
  989000    307.59185   -930.82073            0   -925.49297   -726.73678    13.273352    13.323447    13.348865    1.6007891     1759.919    2199.4039 
  990000    309.79201    -930.6939            0   -925.32804   -494.16809    13.273352    13.323447    13.348865    1.3778145    1761.8976    2197.4228 
  991000    298.87563   -931.47895            0   -926.30217   -2236.4705    13.273352    13.323447    13.348865    1.2760093    1763.8733    2195.4383 
  992000    329.08043   -931.16335            0    -925.4634     -1083.22    13.273352    13.323447    13.348865     1.601677    1765.8516     2193.457 
  993000    326.24168   -930.99305            0   -925.34226   -781.29285    13.273352    13.323447    13.348865    1.6155787    1767.8301    2191.4758 
  994000    290.89673   -931.29013            0   -926.25155   -2392.3145    13.273352    13.323447    13.348865    1.6015689    1769.8068    2189.4925 
  995000    329.58044    -931.0834            0   -925.37478   -1816.8814    13.273352    13.323447    13.348865    1.3992161    1771.7845    2187.5105 
  996000    297.59304   -931.46272            0   -926.30815   -1438.5994    13.273352    13.323447    13.348865    1.6339849    1773.7614    2185.5274 
  997000    296.18336    -931.3749            0   -926.24475   -1400.3895    13.273352    13.323447    13.348865      1.59256    1775.7384    2183.5446 
  998000     347.2746   -931.54324            0   -925.52815   -643.77381    13.273352    13.323447    13.348865    1.4755342    1777.7161    2181.5625 
  999000    303.95612   -931.16705            0   -925.90227   -624.68913    13.273352    13.323447    13.348865    1.4056956    1779.6931    2179.5797 
 1000000    296.59873   -931.33774            0    -926.2004   -980.32529    13.273352    13.323447    13.348865    1.3643999    1781.6762    2177.6043 
 1001000    267.58113   -931.08767            0   -926.45294    -2110.177    13.273352    13.323447    13.348865    1.7258571    1783.6523    2175.6203 
 1002000    323.87273   -930.99633            0   -925.38657   -1155.4366    13.273352    13.323447    13.348865    1.3391001     1785.631    2173.6395 
 1003000    277.91408   -931.37663            0   -926.56292   -1075.4105    13.273352    13.323447    13.348865    1.5072317    1787.6095    2171.6585 
 1004000     280.5384    -931.1752            0   -926.31603   -1219.3227    13.273352    13.323447    13.348865    1.2133346    1789.5872    2169.6765 
 1005000    297.45794   -930.82065            0   -925.66842    -917.5599    13.273352    13.323447    13.348865    1.8072488    1791.5631    2167.6924 
 1006000    275.26445   -931.53208            0   -926.76427   -1898.5896    13.273352    13.323447    13.348865    1.2026306    1793.5457    2165.7163 
 1007000    302.41456   -931.60127            0   -926.36319     -1810.73    13.273352    13.323447    13.348865    1.4008499    1795.5243    2163.7355 
 1008000    295.98918   -930.90516            0   -925.77838   -708.55359    13.273352    13.323447    13.348865    1.6616872    1797.5046    2161.7566 
 1009000     283.8469   -931.59793            0   -926.68146   -1852.3522    13.273352    13.323447    13.348865     1.211707    1799.4838    2159.7765 
 1010000    315.21865   -931.91784            0   -926.45798   -2846.1567    13.273352    13.323447    13.348865    1.2211747    1801.4612    2157.7942 
 1011000     292.7984   -930.91258            0   -925.84106   -2059.7086    13.273352    13.323447    13.348865    1.1497654    1803.4381    2155.8113 
 1012000    292.16569   -931.10409            0   -926.04353   -1654.7922    13.273352    13.323447    13.348865    1.1413003     1805.415    2153.8285 
 1013000    290.22248   -931.81493            0   -926.78803    -2461.275    13.273352    13.323447    13.348865    1.2177285    1807.3951    2151.8494 
 1014000    320.71437    -931.0401            0   -925.48505   -910.61577    13.273352    13.323447    13.348865    1.5559287    1809.3822    2149.8786 
 1015000    291.66193   -931.09296            0   -926.04113   -1864.5065    13.273352    13.323447    13.348865    1.4593009    1811.3604    2147.8973 
 1016000    274.60007   -931.94678            0   -927.19047   -2926.0783    13.273352    13.323447    13.348865    1.3208976    1813.3382    2145.9155 
 1017000    281.50617   -931.52856            0   -926.65263   -3218.6512    13.273352    13.323447    13.348865    1.1824333    1815.3145    2143.9319 
 1018000    322.73414   -931.22458            0   -925.63455   -1153.0752    13.273352    13.323447    13.348865    1.0563437    1817.2915    2141.9492 
 1019000    316.15944   -931.49777            0   -926.02162   -3124.4443    13.273352    13.323447    13.348865    1.4604466    1819.2703    2139.9687 
 1020000    282.31905   -931.51323            0   -926.62322   -1616.4876    13.273352    13.323447    13.348865     1.340661    1821.2423    2137.9801 
 1021000     293.8695    -930.6183            0   -925.52823   -1507.7314    13.273352    13.323447    13.348865    1.6978854    1823.2232     2136.002 
 1022000    297.60395   -931.34436            0   -926.18961   -1465.9848    13.273352    13.323447    13.348865    1.4117107    1825.1976    2134.0163 
 1023000    292.91756   -931.37915            0   -926.30557   -1659.5905    13.273352    13.323447    13.348865    1.1313857    1827.1711    2132.0295 
 1024000    304.25918   -930.49549            0   -925.22546    63.425822    13.273352    13.323447    13.348865    1.8388788    1829.1426    2130.0405 
 1025000    275.91937   -931.08753            0   -926.30837   -1570.2843    13.273352    13.323447    13.348865    1.1270116     1831.114    2128.0514 
 1026000    297.19429   -931.22149            0   -926.07383   -1712.5619    13.273352    13.323447    13.348865    1.2343007    1833.0875    2126.0647 
 1027000    296.19335   -930.71461            0   -925.58429   -883.86224    13.273352    13.323447    13.348865    1.8864062    1835.0611    2124.0783 
 1028000    333.03675   -930.75327            0   -924.98479   -40.478319    13.273352    13.323447    13.348865    1.2783456    1837.1032    2122.1709 
 1029000    298.34539   -931.41117            0   -926.24357   -1133.2617    13.273352    13.323447    13.348865    1.3286165    1839.0767    2120.1843 
 1030000    304.32785   -930.89985            0   -925.62863   -730.12394    13.273352    13.323447    13.348865    1.2871726    1841.0492    2118.1964 
 1031000    330.83735   -930.87206            0   -925.14168    168.24346    13.273352    13.323447    13.348865    1.3952939    1843.0303    2116.2185 
 1032000    300.45604   -931.43824            0   -926.23408   -1096.1098    13.273352    13.323447    13.348865    1.2404974    1845.0112    2114.2403 
 1033000    345.96339    -931.5146            0   -925.52222   -1621.9977    13.273352    13.323447    13.348865    1.3096452    1846.9865    2112.2558 
 1034000    287.10251   -931.01166            0    -926.0388   -1147.8496    13.273352    13.323447    13.348865    1.6425987     1848.961    2110.2703 
 1035000    311.30636   -931.81887            0   -926.42678   -2775.9089    13.273352    13.323447    13.348865    1.2488167    1850.9348     2108.284 
 1036000     342.8138   -931.49011            0   -925.55229   -1153.9902    13.273352    13.323447    13.348865    1.3357646    1852.9198    2106.3106 
 1037000    306.31616   -931.19625            0    -925.8906   -1469.4812    13.273352    13.323447    13.348865     1.488389    1854.8957    2104.3267 
 1038000    289.20495   -931.48251            0   -926.47323    -2308.717    13.273352    13.323447    13.348865     1.560815    1856.8753    2102.3471 
 1039000    296.07848   -931.69896            0   -926.57063   -2388.1111    13.273352    13.323447    13.348865    1.9050169    1858.8519    2100.3641 
 1040000    318.65313   -931.10432            0   -925.58497   -1367.8962    13.273352    13.323447    13.348865    1.5270355    1860.8318    2098.3849 
 1041000    252.97451   -930.95849            0   -926.57675   -1177.3177    13.273352    13.323447    13.348865    1.7773387    1862.8112    2096.4049 
 1042000    294.31891   -931.88375            0    -926.7859   -2140.2149    13.273352    13.323447    13.348865    1.3272508    1864.7871    2094.4212 
 1043000    325.46829   -931.11398            0   -925.47659   -1202.4502    13.273352    13.323447    13.348865    1.0890677    1866.7672    2092.4421 
 1044000    275.34284   -931.10584            0   -926.33666   -1101.2672    13.273352    13.323447    13.348865    1.5741752    1868.7529    2090.4693 
 1045000    297.78553   -931.29128            0   -926.13338   -1255.8102    13.273352    13.323447    13.348865    1.3379239    1870.7363    2088.4939 
 1046000    317.49355   -930.94288            0   -925.44362   -1257.1978    13.273352    13.323447    13.348865    1.6881301    1872.7816    2086.5876 
 1047000    311.00359   -931.75029            0   -926.36344   -1723.4701    13.273352    13.323447    13.348865     1.553452    1874.7625    2084.6092 
 1048000    336.69829   -930.95552            0   -925.12361    327.68335    13.273352    13.323447    13.348865    1.3566338    1876.7434    2082.6308 
 1049000    304.87102   -930.95436            0   -925.67373   -1991.9296    13.273352    13.323447    13.348865    1.4823549     1878.724    2080.6522 
 1050000    264.38047   -930.72862            0   -926.14932   -537.81325    13.273352    13.323447    13.348865    1.3113875    1880.7036    2078.6724 
 1051000    340.27688   -930.83286            0   -924.93898   -1077.2517    13.273352    13.323447    13.348865    1.3363341    1882.6821    2076.6914 
 1052000     305.6157   -930.86625            0   -925.57272   -1165.0489    13.273352    13.323447    13.348865    1.9664317    1884.7223    2074.7783 
 1053000    279.53628   -930.91529            0   -926.07348   -2529.2545    13.273352    13.323447    13.348865    1.6347073     1886.765    2072.8677 
 1054000    313.72418   -931.12333            0   -925.68936   -2340.4166    13.273352    13.323447    13.348865    1.1487408    1888.7497    2070.8933 
 1055000    311.80175   -930.68969            0   -925.28901   -1519.7079    13.273352    13.323447    13.348865    1.2140808    1890.7303    2068.9143 
 1056000    266.94056   -931.00337            0   -926.37973   -1639.5027    13.273352    13.323447    13.348865    1.4235109    1892.7085    2066.9327 
 1057000    332.05612   -931.36428            0   -925.61278   -1332.9355    13.273352    13.323447    13.348865    1.9854765     1894.685    2064.9493 
 1058000    328.19211   -930.21836            0   -924.53379    -821.7852    13.273352    13.323447    13.348865     1.561185    1896.6651    2062.9698 
 1059000     287.7212   -930.96373            0   -925.98015   -1741.4641    13.273352    13.323447    13.348865    1.5499922    1898.6411    2060.9859 
 1060000    317.00662    -931.6725            0   -926.18167   -1699.7536    13.273352    13.323447    13.348865    1.7115069    1900.6164    2059.0011 
 1061000    329.12488   -930.65258            0   -924.95186    -977.4002    13.273352    13.323447    13.348865    1.6103384    1902.5923     2057.017 
 1062000    277.22391   -930.96808            0   -926.16632   -1324.7222    13.273352    13.323447    13.348865    1.3463745    1904.5977    2055.0648 
 1063000    284.41662   -930.86717            0   -925.94083   -1840.8697    13.273352    13.323447    13.348865    1.6198299    1906.5856    2053.0937 
 1064000    330.25065   -931.03391            0   -925.31368   -1406.5139    13.273352    13.323447    13.348865    1.9065909    1908.5608    2051.1089 
 1065000    282.11436   -931.33153            0   -926.44507   -2187.6256    13.273352    13.323447    13.348865    1.7639218    1910.5983    2049.1909 
 1066000    278.43376   -930.81027            0   -925.98756   -1808.4736    13.273352    13.323447    13.348865     1.352419    1912.5736    2047.2062 
 1067000    327.54751    -931.1064            0   -925.43299   -2077.3341    13.273352    13.323447    13.348865     1.507211    1914.5528    2045.2255 
 1068000    286.98675   -931.07243            0   -926.10157    -1368.267    13.273352    13.323447    13.348865     1.968664    1916.5318    2043.2447 
 1069000    278.39399   -931.45079            0   -926.62876   -1688.8353    13.273352    13.323447    13.348865    1.3474868    1918.5055    2041.2582 
 1070000    302.86878   -930.86302            0   -925.61707   -1242.8179    13.273352    13.323447    13.348865     1.415175    1920.4801    2039.2726 
 1071000    312.74508   -931.14783            0   -925.73081   -1651.4398    13.273352    13.323447    13.348865    1.5623851     1922.456    2037.2886 
 1072000    259.95688   -931.11289            0   -926.61022   -1991.9761    13.273352    13.323447    13.348865    1.6269722    1924.4296    2035.3021 
 1073000    319.78046   -931.43834            0   -925.89947    -897.8436    13.273352    13.323447    13.348865    1.5896643    1926.4018    2033.3141 
 1074000     300.9238   -930.80741            0   -925.59515   -450.81408    13.273352    13.323447    13.348865    1.4862452    1928.3726    2031.3248 
 1075000    273.87522   -931.40256            0    -926.6588   -2652.0306    13.273352    13.323447    13.348865    1.3024626    1930.3445    2029.3366 
 1076000     297.0662   -930.77487            0   -925.62943   -973.59726    13.273352    13.323447    13.348865    1.6122768    1932.3147    2027.3466 
 1077000    300.42977   -930.90256            0   -925.69886   -9.2595704    13.273352    13.323447    13.348865    2.3759877    1934.2858    2025.3576 
 1078000    304.90979   -931.44751            0   -926.16621   -1646.0748    13.273352    13.323447    13.348865    1.3603675    1936.2579    2023.3697 
 1079000    301.53724   -931.25475            0   -926.03186   -2651.6862    13.273352    13.323447    13.348865      1.61022    1938.2332    2021.3852 
 1080000    298.40949   -930.91731            0    -925.7486   -657.77089    13.273352    13.323447    13.348865    1.5437855    1940.2088    2019.4009 
 1081000    298.05602   -931.27174            0   -926.10916   -2480.0483    13.273352    13.323447    13.348865      1.87664    1942.1843    2017.4167 
 1082000     280.5437   -931.49841            0   -926.63916   -2891.8877    13.273352    13.323447    13.348865     1.766608    1944.1601    2015.4327 
 1083000    316.05059   -930.82013            0   -925.34586   -1522.9927    13.273352    13.323447    13.348865    1.7173724    1946.1331    2013.4459 
 1084000    291.53476   -931.25211            0   -926.20248   -942.94564    13.273352    13.323447    13.348865    1.3713026    1948.1061    2011.4592 
 1085000    254.94235   -930.42585            0   -926.01003    -373.7299    13.273352    13.323447    13.348865    1.3506785    1950.0807    2009.4741 
 1086000    324.91545   -930.91724            0   -925.28943    126.83358    13.273352    13.323447    13.348865    2.4801569    1952.1105    2007.5456 
 1087000    276.70606   -931.16237            0   -926.36959   -1263.6012    13.273352    13.323447    13.348865    1.7158801     1954.095    2005.5707 
 1088000    291.87824   -930.52388            0    -925.4683    546.96173    13.273352    13.323447    13.348865    1.4588974    1956.1308    2003.6481 
 1089000    326.05364   -931.06707            0   -925.41954   -74.040023    13.273352    13.323447    13.348865    1.1250203    1958.1103    2001.6679 
 1090000    319.24702   -931.53315            0   -926.00351   -590.31334    13.273352    13.323447    13.348865    1.3876405    1960.1095    1999.7076 
 1091000    282.19397   -930.82004            0    -925.9322   -675.40778    13.273352    13.323447    13.348865    1.4797504    1962.0967    1997.7352 
 1092000    324.57033   -930.79021            0   -925.16837   -585.29444    13.273352    13.323447    13.348865    1.8428271    1964.1157     1995.795 
 1093000    301.66113   -931.64656            0   -926.42153   -1832.4926    13.273352    13.323447    13.348865    1.2742064    1966.0925    1993.8118 
 1094000    306.85979   -931.21391            0   -925.89883   -827.71128    13.273352    13.323447    13.348865     1.759005    1968.1472    1991.9075 
 1095000    312.48286   -930.91935            0   -925.50688    -1886.539    13.273352    13.323447    13.348865    1.8420937    1970.1252    1989.9254 
 1096000    289.64616    -931.6812            0   -926.66428   -2506.9446    13.273352    13.323447    13.348865    1.3583563    1972.1076    1987.9479 
 1097000    328.19927   -931.36412            0   -925.67942   -1658.9736    13.273352    13.323447    13.348865     1.180322    1974.1684     1986.049 
 1098000    307.52066   -931.12967            0   -925.80315   -1566.0069    13.273352    13.323447    13.348865    1.4713756    1976.1412    1984.0616 
 1099000      276.893   -931.63618            0   -926.84015   -1415.0556    13.273352    13.323447    13.348865    1.2763297     1978.131    1982.0912 
 1100000    304.31359    -931.1521            0   -925.88113   -1189.1821    13.273352    13.323447    13.348865    1.8057116     1980.104     1980.104 
 1101000    311.54308    -931.0928            0    -925.6966   -1272.5036    13.273352    13.323447    13.348865    1.3688107    1982.1658    1978.2054 
 1102000    266.19159   -931.49905            0   -926.88839   -2004.7456    13.273352    13.323447    13.348865    1.3971489    1984.1472    1976.2264 
 1103000    295.81714   -931.04279            0   -925.91898   -1269.7061    13.273352    13.323447    13.348865    1.3613351    1986.1282    1974.2471 
 1104000    294.14371   -930.97121            0   -925.87639   -1468.2194    13.273352    13.323447    13.348865    1.7310323    1988.1197    1972.2781 
 1105000    288.91552    -931.8742            0   -926.86993   -2619.0373    13.273352    13.323447    13.348865     1.366228    1990.1748    1970.3721 
 1106000    305.64844   -931.12191            0   -925.82781   -1102.5502    13.273352    13.323447    13.348865    1.3217238    1992.1572    1968.3939 
 1107000    291.33777   -930.82111            0   -925.77489   -1789.4818    13.273352    13.323447    13.348865    1.5254777    1994.1312    1966.4074 
 1108000    271.95337   -931.67634            0   -926.96587   -1790.0299    13.273352    13.323447    13.348865    1.7373207    1996.1395    1964.4547 
 1109000    305.72414    -931.1041            0    -925.8087   -1865.8697    13.273352    13.323447    13.348865    1.7383094    1998.1175    1962.4722 
 1110000    302.79025   -931.04372            0   -925.79913    -1866.358    13.273352    13.323447    13.348865    1.3286724      2000.18    1960.5725 
 1111000    258.06797   -931.07972            0   -926.60976   -2774.9461    13.273352    13.323447    13.348865    1.2541711     2002.179    1958.6104 
 1112000    315.70642   -930.98478            0   -925.51648   -1418.3223    13.273352    13.323447    13.348865     1.184878    2004.1546    1956.6252 
 1113000    298.86626   -930.95064            0   -925.77402   -1636.3392    13.273352    13.323447    13.348865    1.5178803     2006.151    1954.6604 
 1114000    326.10134    -932.0966            0   -926.44825   -3713.7798    13.273352    13.323447    13.348865    1.2523836    2008.1327    1952.6813 
 1115000    272.76513   -930.72716            0   -926.00264   -298.75595    13.273352    13.323447    13.348865    2.3533176    2010.1222    1950.7097 
 1116000    290.81344   -930.55356            0   -925.51642   -1414.0565    13.273352    13.323447    13.348865    1.2828626    2012.1104    1948.7368 
 1117000    312.60883   -931.45759            0   -926.04293    -2612.374    13.273352    13.323447    13.348865    1.1802625    2014.1722     1946.835 
 1118000    270.59676   -931.10698            0   -926.42001   -1309.5838    13.273352    13.323447    13.348865    1.2055911    2016.1628    1944.8643 
 1119000    320.62863   -930.78237            0   -925.22881   -323.96883    13.273352    13.323447    13.348865    1.6804263    2018.1492    1942.8894 
 1120000    300.85736   -931.23392            0   -926.02281   -2347.1076    13.273352    13.323447    13.348865    1.3849512    2020.1255    1940.9049 
 1121000     303.3262   -931.34447            0    -926.0906   -2043.1298    13.273352    13.323447    13.348865    1.7111061    2022.0943    1938.9131 
 1122000    308.59499   -930.01894            0   -924.67381    211.12561    13.273352    13.323447    13.348865    1.5291244     2024.138    1936.9931 
 1123000    322.62336   -931.65944            0   -926.07133   -1790.7649    13.273352    13.323447    13.348865    1.2695051    2026.1079    1935.0024 
 1124000    300.71317   -931.36559            0   -926.15698   -1593.1058    13.273352    13.323447    13.348865    1.2741776    2028.0768    1933.0107 
 1125000     336.8806   -930.80415            0   -924.96909   -903.78414    13.273352    13.323447    13.348865    1.0307493    2030.0481    1931.0214 
 1126000    306.55546   -931.41705            0   -926.10725   -1525.6874    13.273352    13.323447    13.348865     1.224481    2032.0404     1929.052 
 1127000    324.29476   -931.59177            0   -925.97471   -1458.5553    13.273352    13.323447    13.348865    1.1521246    2034.0168    1927.0675 
 1128000    339.76484   -930.93512            0    -925.0501   -1763.8378    13.273352    13.323447    13.348865    1.3563321    2035.9956    1925.0854 
 1129000    284.52444   -931.14231            0    -926.2141    -2583.014    13.273352    13.323447    13.348865    1.9693189    2037.9704    1923.0994 
 1130000    296.29478    -931.2458            0   -926.11372   -2195.6136    13.273352    13.323447    13.348865    1.2646795    2039.9434    1921.1117 
 1131000    320.87128   -930.60039            0   -925.04263    -808.0157    13.273352    13.323447    13.348865    1.3758347    2041.9184     1919.126 
 1132000    268.73485   -931.22153            0   -926.56681   -1699.8735    13.273352    13.323447    13.348865    1.1822209    2043.8927    1917.1396 
 1133000    315.15684   -931.22209            0    -925.7633   -1157.8264    13.273352    13.323447    13.348865     1.630724     2045.866    1915.1524 
 1134000    316.32656   -931.11829            0   -925.63924   -574.83579    13.273352    13.323447    13.348865    1.5630604    2047.8389    1913.1648 
 1135000    268.69019   -931.45295            0     -926.799   -2345.9864    13.273352    13.323447    13.348865    1.1226273    2049.8181    1911.1831 
 1136000    284.32748   -930.73294            0   -925.80815   -1054.0994    13.273352    13.323447    13.348865    1.3944323    2051.8144    1909.2173 
 1137000     289.0076   -930.80004            0   -925.79418   -864.28211    13.273352    13.323447    13.348865    1.2096409    2053.7979    1907.2395 
 1138000    273.68852   -931.60931            0   -926.86878   -2591.1349    13.273352    13.323447    13.348865    1.4736648    2055.7952    1905.2745 
 1139000    287.19015   -930.84403            0   -925.86965   -2061.5706    13.273352    13.323447    13.348865    1.5097774    2057.7707    1903.2894 
 1140000    320.96711   -931.39923            0   -925.83981   -1195.6457    13.273352    13.323447    13.348865    1.8065493    2059.8107    1901.3637 
 1141000     255.3577   -931.44552            0   -927.02251   -2840.7757    13.273352    13.323447    13.348865    1.5145227      2061.79     1899.382 
 1142000    307.69811   -931.34909            0    -926.0195    -1341.609    13.273352    13.323447    13.348865    1.4691071    2063.8692    1897.4921 
 1143000    317.13597   -931.28598            0   -925.79291    -1445.788    13.273352    13.323447    13.348865    1.6609631    2065.8563    1895.5172 
 1144000    284.55146   -931.41992            0   -926.49125   -2353.9882    13.273352    13.323447    13.348865    1.4081165    2067.8358    1893.5355 
 1145000    312.52847   -931.57194            0   -926.15867   -1732.0477    13.273352    13.323447    13.348865    1.2867662    2069.8247    1891.5623 
 1146000     295.7213   -930.66534            0   -925.54319   -1501.1232    13.273352    13.323447    13.348865    1.4487347    2071.8039    1889.5802 
 1147000     284.8429   -931.38472            0   -926.45099   -2530.4151    13.273352    13.323447    13.348865    1.2028428    2073.7913    1887.6057 
 1148000    249.07952   -931.65271            0   -927.33844   -1977.1671    13.273352    13.323447    13.348865    1.3522252    2075.7649    1885.6185 
 1149000    279.79651   -930.79747            0   -925.95115   -2121.9801    13.273352    13.323447    13.348865     1.400461    2077.7917    1883.6796 
 1150000    285.30193   -930.49573            0   -925.55405   -924.60622    13.273352    13.323447    13.348865    1.2457581    2079.8076    1881.7307 
 1151000    263.38264   -931.31298            0   -926.75096   -1947.9645    13.273352    13.323447    13.348865    1.2204773    2081.7827    1879.7448 
 1152000    314.65482   -931.34747            0   -925.89738   -992.66895    13.273352    13.323447    13.348865    1.4140453    2083.7573    1877.7585 
 1153000    293.23533   -930.92565            0   -925.84656   -1361.4195    13.273352    13.323447    13.348865    1.4259038    2085.7449    1875.7839 
 1154000    293.30116   -931.60028            0   -926.52005   -973.13572    13.273352    13.323447    13.348865   0.97852901    2087.7263    1873.8037 
 1155000    260.66497   -930.83989            0   -926.32495   -764.72846    13.273352    13.323447    13.348865    1.3971227    2089.7016     1871.818 
 1156000    296.52338   -930.64137            0   -925.50533   -1234.7353    13.273352    13.323447    13.348865    1.3688148    2091.6826    1869.8375 
 1157000    262.35033   -931.17346            0   -926.62933   -2832.1624    13.273352    13.323447    13.348865    1.4985549    2093.6598    1867.8535 
 1158000    311.65998   -930.68353            0   -925.28531   -1011.4017    13.273352    13.323447    13.348865    1.4582947    2095.6367    1865.8694 
 1159000    301.46443   -931.07131            0   -925.84969   -107.98911    13.273352    13.323447    13.348865    1.5820865    2097.6235     1863.894 
 1160000    261.59965   -930.97648            0   -926.44535   -1608.4938    13.273352    13.323447    13.348865    1.3384495    2099.5997    1861.9092 
 1161000    335.53322   -930.91673            0   -925.10501   -806.64149    13.273352    13.323447    13.348865    1.4000642    2101.5763    1859.9247 
 1162000    284.93817   -930.79773            0   -925.86236    207.37883    13.273352    13.323447    13.348865    1.6162212    2103.5532    1857.9406 
 1163000    279.06952   -930.95693            0    -926.1232   -112.94823    13.273352    13.323447    13.348865    1.2497515    2105.5838    1856.0038 
 1164000     340.8243   -930.80461            0   -924.90124   -828.09293    13.273352    13.323447    13.348865     1.511334      2107.56    1854.0189 
 1165000    322.41517   -931.32982            0   -925.74531   -715.12089    13.273352    13.323447    13.348865    1.1867073    2109.5591    1852.0543 
 1166000    294.64822    -931.2429            0   -926.13934   -1282.5353    13.273352    13.323447    13.348865    1.5419736    2111.5734    1850.1027 
 1167000    342.33955   -931.01983            0   -925.09022   -1707.2379    13.273352    13.323447    13.348865    1.6478969    2113.5507    1848.1189 
 1168000    281.32347   -930.66399            0   -925.79123   -2074.5096    13.273352    13.323447    13.348865    1.2632238    2115.5395     1846.145 
 1169000    293.81983   -931.14625            0   -926.05704    -1337.983    13.273352    13.323447    13.348865    1.8629583    2117.5133    1844.1579 
 1170000    306.67546   -930.63803            0   -925.32615   -1293.2577    13.273352    13.323447    13.348865    1.1385465    2119.4877    1842.1715 
 1171000    291.23245   -930.72099            0    -925.6766   -1036.7377    13.273352    13.323447    13.348865    1.3627409    2121.4622    1840.1852 
 1172000    284.65497   -931.26906            0   -926.33859   -1942.0221    13.273352    13.323447    13.348865    1.0991359    2123.4353    1838.1977 
 1173000    294.63574   -930.27372            0   -925.17038    118.33806    13.273352    13.323447    13.348865    1.6956361    2125.4579     1836.253 
 1174000    259.75937   -931.05378            0   -926.55453   -2160.9313    13.273352    13.323447    13.348865    1.4154949    2127.4995    1834.3245 
 1175000    313.81626   -931.35446            0   -925.91889   -1866.7104    13.273352    13.323447    13.348865    1.4314946    2129.4721    1832.3364 
 1176000    336.72907   -931.37126            0   -925.53883   -1116.0342    13.273352    13.323447    13.348865    1.4702184    2131.4493    1830.3524 
 1177000    259.17584   -931.26079            0   -926.77164   -1239.1083    13.273352    13.323447    13.348865    1.4534922    2133.4209    1828.3635 
 1178000    319.78953   -931.53604            0   -925.99701    -1353.995    13.273352    13.323447    13.348865    1.1619725    2135.3949    1826.3767 
 1179000    304.57288   -931.07274            0   -925.79728   -932.26166    13.273352    13.323447    13.348865    1.2375334     2137.371    1824.3917 
 1180000    263.45043   -931.62288            0    -927.0597   -2032.0349    13.273352    13.323447    13.348865    1.1675457    2139.3457    1822.4056 
 1181000    271.00058   -930.62249            0   -925.92853   -630.95332    13.273352    13.323447    13.348865    1.1305255    2141.3192    1820.4184 
 1182000    293.26069   -930.95251            0   -925.87298    255.17389    13.273352    13.323447    13.348865    1.5969213     2143.295    1818.4333 
 1183000    275.25691   -931.81424            0   -927.04655   -1616.0644    13.273352    13.323447    13.348865    1.4239082    2145.2717    1816.4489 
 1184000    287.09776   -930.89375            0   -925.92097   -1289.5503    13.273352    13.323447    13.348865    1.4844133    2147.2444    1814.4611 
 1185000     285.8005   -930.79633            0   -925.84602   -1046.9509    13.273352    13.323447    13.348865    1.4371851    2149.2176    1812.4739 
 1186000     276.8508   -931.25935            0   -926.46406   -2027.9087    13.273352    13.323447    13.348865    1.4001582    2151.1939    1810.4891 
 1187000    295.65551   -931.35744            0   -926.23643   -2654.6641    13.273352    13.323447    13.348865    1.7840517    2153.1662    1808.5012 
 1188000    330.61893   -931.22593            0   -925.49933   -1821.0578    13.273352    13.323447    13.348865    1.0969355     2155.139    1806.5136 
 1189000    277.15913   -931.33642            0   -926.53578   -1593.3434    13.273352    13.323447    13.348865    1.5101584    2157.1164    1804.5299 
 1190000     340.6015   -931.01861            0    -925.1191   -1113.4519    13.273352    13.323447    13.348865    1.2281994     2159.093    1802.5455 
 1191000    299.87719   -931.09092            0   -925.89679   -2438.5366    13.273352    13.323447    13.348865    1.2348013    2161.0711    1800.5624 
 1192000    280.89986   -931.26137            0   -926.39594   -2126.0701    13.273352    13.323447    13.348865    1.2625164    2163.0428     1798.574 
 1193000    318.04345   -930.58133            0   -925.07255   -938.47201    13.273352    13.323447    13.348865    1.4752674    2165.0128    1796.5843 
 1194000    304.61336    -931.0549            0   -925.77874   -709.85653    13.273352    13.323447    13.348865    1.7295921    2166.9834     1794.595 
 1195000    305.36244   -931.40607            0   -926.11693   -2148.1451    13.273352    13.323447    13.348865    1.5234673    2168.9519    1792.6041 
 1196000    307.91107   -930.58788            0   -925.25459   -521.37873    13.273352    13.323447    13.348865    1.7718067    2170.9207    1790.6134 
 1197000     295.2925   -930.98664            0   -925.87192   -1823.8346    13.273352    13.323447    13.348865    1.4853123    2172.8904    1788.6235 
 1198000    290.18323   -931.27478            0   -926.24856   -500.91332    13.273352    13.323447    13.348865    1.4641399    2174.8583    1786.6322 
 1199000    307.14232   -930.55354            0   -925.23357   -1211.8411    13.273352    13.323447    13.348865    1.6026177    2176.8288    1784.6431 
 1200000    330.78275    -930.6189            0   -924.88946   -762.42996    13.273352    13.323447    13.348865    1.7323007     2178.805    1782.6587 
 1201000    311.17132   -931.37273            0   -925.98297    -1488.271    13.273352    13.323447    13.348865    1.3251423    2180.7764    1780.6703 
 1202000     310.7686     -931.764            0   -926.38122   -2312.2377    13.273352    13.323447    13.348865    1.4104847    2182.7484    1778.6824 
 1203000    335.78564   -930.96926            0   -925.15317   -1269.6588    13.273352    13.323447    13.348865    1.5152661    2184.7211    1776.6952 
 1204000    302.55523   -931.24295            0   -926.00243   -1525.0761    13.273352    13.323447    13.348865    1.1715728    2186.6965    1774.7102 
 1205000    280.40685   -930.89652            0   -926.03964   -993.93895    13.273352    13.323447    13.348865    1.3850061    2188.6662    1772.7206 
 1206000    309.53366   -930.68355            0   -925.32216   -1703.3043    13.273352    13.323447    13.348865    1.5240652    2190.6404    1770.7346 
 1207000    332.47784   -931.21176            0   -925.45296   -569.57384    13.273352    13.323447    13.348865    1.0436583    2192.6163    1768.7501 
 1208000    285.95173   -931.25669            0   -926.30376   -2376.0281    13.273352    13.323447    13.348865    1.0772141    2194.5905    1766.7642 
 1209000    320.55205   -930.86757            0   -925.31533   -931.95769    13.273352    13.323447    13.348865    1.2328579    2196.5646    1764.7782 
 1210000    289.81764   -931.05676            0   -926.03687   -1623.8403    13.273352    13.323447    13.348865    1.2239685     2198.536    1762.7901 
 1211000    265.95194   -930.80686            0   -926.20034   -643.42574    13.273352    13.323447    13.348865    1.6571681    2200.5094    1760.8037 
 1212000    311.66938   -930.71587            0   -925.31749   -408.79517    13.273352    13.323447    13.348865    1.6608962    2202.4817    1758.8163 
 1213000    275.01248   -931.48078            0   -926.71733   -1383.2324    13.273352    13.323447    13.348865    1.5181375    2204.4504    1756.8262 
 1214000    297.32347   -931.04127            0   -925.89137   -1345.0815    13.273352    13.323447    13.348865    1.2798406    2206.4195    1754.8363 
 1215000    310.31162   -931.04793            0   -925.67307   -1639.8508    13.273352    13.323447    13.348865    1.3051324    2208.3909    1752.8483 
 1216000    299.57266   -931.53891            0   -926.35005   -2090.4745    13.273352    13.323447    13.348865    1.3360178    2210.3643     1750.862 
 1217000    252.98031   -931.42475            0   -927.04291   -3117.6787    13.273352    13.323447    13.348865    1.9328647    2212.3369    1748.8751 
 1218000    310.52226   -931.17952            0   -925.80101   -985.26089    13.273352    13.323447    13.348865    1.4670001    2214.3091    1746.8879 
 1219000    307.37023   -930.95868            0   -925.63476   -960.04891    13.273352    13.323447    13.348865    1.4080993    2216.2818    1744.9011 
 1220000    259.24487   -931.27275            0    -926.7824   -2064.7086    13.273352    13.323447    13.348865    1.3911402    2218.2587    1742.9176 
 1221000    286.49543    -930.7357            0   -925.77335   -1361.9684    13.273352    13.323447    13.348865    1.3188991    2220.2336    1740.9325 
 1222000    292.43075    -930.9604            0   -925.89525   -1151.8285    13.273352    13.323447    13.348865    2.0714365    2222.2086    1738.9475 
 1223000    276.40792   -931.45002            0    -926.6624   -1956.1627    13.273352    13.323447    13.348865    1.5030208    2224.1829    1736.9621 
 1224000    292.71693   -931.19652            0   -926.12641   -1552.8006    13.273352    13.323447    13.348865     1.285625    2226.1578    1734.9771 
 1225000    317.03267   -931.12243            0   -925.63115   -1146.5711    13.273352    13.323447    13.348865    1.3358114    2228.1331    1732.9924 
 1226000    288.26371    -931.7368            0   -926.74382   -2079.2561    13.273352    13.323447    13.348865    1.4262258    2230.1087     1731.008 
 1227000    296.15096   -931.38893            0   -926.25934    -2023.926    13.273352    13.323447    13.348865    1.3655647    2232.0843    1729.0236 
 1228000    302.61824   -930.70926            0   -925.46765   -588.46071    13.273352    13.323447    13.348865    1.9462604    2234.0594    1727.0389 
 1229000    299.12543   -931.66973            0   -926.48862   -2696.4097    13.273352    13.323447    13.348865    1.6008291    2236.0343    1725.0539 
 1230000    299.23001   -930.73362            0    -925.5507   -831.35511    13.273352    13.323447    13.348865     1.470847    2238.0091    1723.0689 
 1231000    293.36271   -930.75822            0   -925.67692   -889.50068    13.273352    13.323447    13.348865    1.4652629    2239.9858    1721.0855 
 1232000    288.38967   -931.37388            0   -926.37872   -506.22055    13.273352    13.323447    13.348865    1.3687984     2241.962    1719.1016 
 1233000    324.09782   -930.46266            0     -924.849    279.15277    13.273352    13.323447    13.348865    1.4710946    2243.9362    1717.1162 
 1234000    330.27692   -931.53994            0   -925.81926   -920.27237    13.273352    13.323447    13.348865    1.3325345    2245.9125    1715.1325 
 1235000    300.23124   -931.41705            0   -926.21679   -1749.4065    13.273352    13.323447    13.348865    1.2886134    2247.8877    1713.1479 
 1236000    326.45329   -930.53059            0   -924.87614   -1604.3375    13.273352    13.323447    13.348865    1.4760499     2249.862    1711.1627 
 1237000    287.97916   -930.83611            0   -925.84806   -2712.7282    13.273352    13.323447    13.348865    1.1706845    2251.8382    1709.1789 
 1238000    289.95245   -931.10406            0   -926.08183   -654.69937    13.273352    13.323447    13.348865    1.4942708    2253.8123    1707.1935 
 1239000    317.35748   -930.61122            0   -925.11432   -413.30392    13.273352    13.323447    13.348865    1.7605003    2255.7882    1705.2096 
 1240000      290.498    -930.8966            0   -925.86493   -1418.7145    13.273352    13.323447    13.348865    1.3609463     2257.763    1703.2247 
 1241000    311.70792   -931.50599            0   -926.10694   -1772.9183    13.273352    13.323447    13.348865    1.1995724    2259.7345    1701.2374 
 1242000    317.74937   -930.59405            0   -925.09036   -1571.4044    13.273352    13.323447    13.348865    1.5233398    2261.7047    1699.2493 
 1243000    311.49097   -931.12749            0    -925.7322   -2394.5292    13.273352    13.323447    13.348865    1.4200147    2263.6752    1697.2612 
 1244000     310.0916    -931.6558            0   -926.28474   -896.92784    13.273352    13.323447    13.348865    1.5246517    2265.6492     1695.276 
 1245000     311.7259   -930.61567            0   -925.21631   -452.87312    13.273352    13.323447    13.348865    1.6776565    2267.6235    1693.2909 
 1246000     293.1765    -931.4172            0   -926.33913   -1593.1025    13.273352    13.323447    13.348865    1.1407817    2269.5966     1691.305 
 1247000    302.90429   -931.36167            0   -926.11511   -2864.3953    13.273352    13.323447    13.348865    1.2442394    2271.5686    1689.3182 
 1248000    341.34047   -931.35248            0   -925.44017   -1876.5425    13.273352    13.323447    13.348865    1.5170133    2273.5419    1687.3325 
 1249000    263.38838   -931.46393            0   -926.90182   -3325.0304    13.273352    13.323447    13.348865    1.3294943    2275.5164    1685.3477 
 1250000      303.402    -931.1305            0   -925.87532   -1769.2677    13.273352    13.323447    13.348865    1.6027148    2277.4896    1683.3619 
 1251000    299.79238   -930.89158            0   -925.69891   -1916.3624    13.273352    13.323447    13.348865    1.6137902     2279.462    1681.3755 
 1252000    248.00765   -931.26306            0   -926.96736   -1922.8456    13.273352    13.323447    13.348865    1.5621383    2281.4355      1679.39 
 1253000    297.72756   -931.24503            0   -926.08814   -1185.5646    13.273352    13.323447    13.348865    1.2816373    2283.4074    1677.4033 
 1254000    312.47014   -931.20419            0   -925.79194   -1116.8629    13.273352    13.323447    13.348865    1.1764514    2285.3822    1675.4188 
 1255000    278.73098   -931.44539            0   -926.61752   -2889.6164    13.273352    13.323447    13.348865    1.8709384    2287.3551     1673.433 
 1256000    272.11022   -930.77639            0   -926.06321   -681.98261    13.273352    13.323447    13.348865    1.4458863    2289.3295    1671.4482 
 1257000    286.62898   -930.60636            0    -925.6417   -881.76978    13.273352    13.323447    13.348865    1.8835272    2291.3025    1669.4624 
 1258000    278.74013   -931.37934            0   -926.55133   -1639.6395    13.273352    13.323447    13.348865    1.5439461    2293.2757    1667.4768 
 1259000    247.98749   -931.41556            0    -927.1202   -2286.0788    13.273352    13.323447    13.348865    1.4324838    2295.2485    1665.4909 
 1260000    323.81924   -931.46209            0   -925.85326   -1391.0146    13.273352    13.323447    13.348865    1.4652302    2297.2213    1663.5051 
 1261000    303.04964   -930.88809            0   -925.63901   -796.04343    13.273352    13.323447    13.348865    1.2217181    2299.1941    1661.5193 
 1262000    262.34301   -931.26372            0   -926.71972   -1214.0223    13.273352    13.323447    13.348865    1.1640967    2301.1661    1659.5329 
 1263000    325.04459   -931.04076            0   -925.41071   -581.27594    13.273352    13.323447    13.348865    1.5774283    2303.1418    1657.5492 
 1264000    314.15981   -931.38236            0   -925.94084   -1435.9355    13.273352    13.323447    13.348865    1.1059776    2305.1198    1655.5672 
 1265000    265.65929   -930.97429            0   -926.37284   -2363.3039    13.273352    13.323447    13.348865    1.4185062    2307.0916    1653.5806 
 1266000    304.14722   -930.30036            0   -925.03227    612.71298    13.273352    13.323447    13.348865     1.177955    2309.0614    1651.5928 
 1267000    292.67094   -931.18431            0     -926.115   -1291.8472    13.273352    13.323447    13.348865    1.5438682    2311.0326    1649.6059 
 1268000    286.58446   -931.00101            0   -926.03712   -1794.6375    13.273352    13.323447    13.348865    1.2393958    2313.0024    1647.6181 
 1269000    326.97192   -930.09451            0   -924.43108    1851.6966    13.273352    13.323447    13.348865    1.6190235    2314.9758     1645.633 
 1270000    312.57435   -931.08668            0   -925.67262   -798.96855    13.273352    13.323447    13.348865    1.8392074    2316.9883    1643.6755 
 1271000    253.74176   -930.68945            0   -926.29443   -280.68878    13.273352    13.323447    13.348865    1.4640639    2318.9705    1641.6964 
 1272000    299.83171   -930.56234            0     -925.369   -223.93123    13.273352    13.323447    13.348865    1.4011117    2321.0139    1639.7607 
 1273000    282.08582   -930.59342            0   -925.70745   -251.94842    13.273352    13.323447    13.348865     1.545509    2323.0451    1637.8161 
 1274000    312.47301   -931.59386            0   -926.18156   -1439.7673    13.273352    13.323447    13.348865    1.7618527    2325.0689    1635.8662 
 1275000     298.3016   -930.67571            0   -925.50887   -746.38201    13.273352    13.323447    13.348865     1.472971    2327.0444    1633.8822 
 1276000    360.25979   -930.90324            0   -924.66323   -705.97599    13.273352    13.323447    13.348865      1.12747     2329.035    1631.9089 
 1277000     286.3023   -931.11902            0   -926.16002    -2311.732    13.273352    13.323447    13.348865    1.4837859    2331.0156    1629.9285 
 1278000      312.471   -931.24388            0   -925.83161   -1889.5744    13.273352    13.323447    13.348865    1.1853782    2333.0257    1627.9687 
 1279000    347.34129   -931.01992            0   -925.00367   -2271.7385    13.273352    13.323447    13.348865    1.4484647    2335.0012    1625.9847 
 1280000     276.0313   -931.17727            0   -926.39617   -858.89524    13.273352    13.323447    13.348865    1.4571127    2336.9787    1624.0021 
 1281000    294.83228   -930.66521            0   -925.55846   -516.79095    13.273352    13.323447    13.348865    1.3758363    2338.9906    1622.0435 
 1282000    314.99083   -931.24693            0   -925.79102   -1780.1002    13.273352    13.323447    13.348865    1.6794322    2340.9754    1620.0659 
 1283000    273.41545    -931.2476            0   -926.51181   -1641.0411    13.273352    13.323447    13.348865    1.3727143    2342.9506    1618.0817 
 1284000    308.45137   -930.81095            0   -925.46831   -885.52732    13.273352    13.323447    13.348865    1.6465899    2344.9289    1616.0996 
 1285000    276.06193   -930.62538            0   -925.84375   -349.30712    13.273352    13.323447    13.348865     1.789233    2346.9055    1614.1164 
 1286000    296.24464   -931.13126            0   -926.00005    -1370.847    13.273352    13.323447    13.348865    1.4916582    2348.8805    1612.1321 
 1287000    315.81085   -931.35576            0   -925.88564    -998.9012    13.273352    13.323447    13.348865    1.5789611    2350.9029    1610.1804 
 1288000     302.0814   -930.53238            0   -925.30007   -530.80517    13.273352    13.323447    13.348865    1.4089303    2352.8782    1608.1962 
 1289000    283.47103   -931.23943            0   -926.32947   -1767.7904    13.273352    13.323447    13.348865    1.2168572    2354.8587    1606.2157 
 1290000    291.20145   -930.95281            0   -925.90895   -1820.0321    13.273352    13.323447    13.348865    1.3071758    2356.8551    1604.2459 
 1291000    323.97457   -930.93013            0   -925.31861    -689.6316    13.273352    13.323447    13.348865    1.3301628    2358.8257    1602.2586 
 1292000    293.18441   -931.28877            0   -926.21056   -1145.3482    13.273352    13.323447    13.348865    1.3099625    2360.8022    1600.2753 
 1293000    317.40633   -931.28575            0     -925.788   -2037.5761    13.273352    13.323447    13.348865    1.3232584    2362.7729    1598.2881 
 1294000    331.43304   -930.83281            0   -925.09211   -761.29788    13.273352    13.323447    13.348865    1.1689016    2364.8131    1596.3479 
 1295000    290.19824   -931.19874            0   -926.17225   -1777.4137    13.273352    13.323447    13.348865    1.3838429    2366.7911    1594.3655 
 1296000    293.20061   -931.05472            0   -925.97623    -1429.028    13.273352    13.323447    13.348865    1.6256676    2368.7789    1592.3899 
 1297000    309.41637    -930.5076            0   -925.14824   -223.73879    13.273352    13.323447    13.348865     1.668341    2370.7836    1590.4255 
 1298000    311.30061   -931.57559            0   -926.18359   -1997.5661    13.273352    13.323447    13.348865    1.3103269    2372.7653    1588.4455 
 1299000    312.69402   -931.19117            0   -925.77504    -1427.268    13.273352    13.323447    13.348865    1.2320699    2374.7385      1586.46 
 1300000    350.26795   -930.78053            0   -924.71359   -656.59419    13.273352    13.323447    13.348865    1.3357098    2376.7142    1584.4761 
 1301000    295.87668   -931.29437            0   -926.16953   -1009.6178    13.273352    13.323447    13.348865     1.385081    2378.7174    1582.5106 
 1302000    289.20608   -930.97313            0   -925.96383   -1041.9496    13.273352    13.323447    13.348865     1.370078    2380.6931    1580.5267 
 1303000     340.7746   -930.85521            0    -924.9527    535.34041    13.273352    13.323447    13.348865    1.6163312    2382.7024    1578.5651 
 1304000    259.11466   -930.93059            0    -926.4425    -1883.822    13.273352    13.323447    13.348865    1.3697142    2384.6756    1576.5796 
 1305000    290.27668   -930.63352            0   -925.60568    -1364.407    13.273352    13.323447    13.348865     1.292191    2386.6517     1574.596 
 1306000    286.59601   -930.88417            0   -925.92008   -949.39055    13.273352    13.323447    13.348865    1.5391442    2388.6293    1572.6133 
 1307000    295.00789   -931.59964            0   -926.48985    -2321.096    13.273352    13.323447    13.348865    1.1763152    2390.6075    1570.6311 
 1308000    303.63973   -930.85286            0   -925.59356   -1266.9406    13.273352    13.323447    13.348865    1.8093178    2392.5857    1568.6489 
 1309000    299.15814   -931.27737            0   -926.09569   -1312.5265    13.273352    13.323447    13.348865    1.7235127    2394.5601    1566.6642 
 1310000    285.88734   -932.12638            0   -927.17457   -2848.3823    13.273352    13.323447    13.348865   0.99161275    2396.5314    1564.6775 
 1311000    298.53843   -931.16409            0   -925.99315   -1681.6574    13.273352    13.323447    13.348865    1.4259488    2398.5139    1562.6982 
 1312000    284.93643   -930.50221            0   -925.56687   -1668.9838    13.273352    13.323447    13.348865      1.58283    2400.4961    1560.7186 
 1313000    266.83975   -931.38683            0   -926.76494   -2349.0715    13.273352    13.323447    13.348865    2.0266838    2402.4752     1558.737 
 1314000    295.44145   -930.95714            0   -925.83984   -875.59426    13.273352    13.323447    13.348865    1.4984236    2404.4528    1556.7545 
 1315000    307.61177   -931.12254            0   -925.79444   -1458.2732    13.273352    13.323447    13.348865    1.4004736    2406.4302    1554.7718 
 1316000    275.45248   -931.46964            0   -926.69857   -2036.5555    13.273352    13.323447    13.348865    1.4002979    2408.4128    1552.7925 
 1317000    309.59292   -931.91749            0   -926.55507   -2255.5981    13.273352    13.323447    13.348865    1.2900303    2410.3979    1550.8148 
 1318000    316.74941   -931.15858            0   -925.67221    -2201.863    13.273352    13.323447    13.348865    1.1119416    2412.3852    1548.8385 
 1319000    282.51459   -931.26204            0   -926.36864   -1588.1455    13.273352    13.323447    13.348865    1.3867496    2414.3591    1546.8536 
 1320000    274.20209   -931.23118            0   -926.48177   -1945.0118    13.273352    13.323447    13.348865    1.3900805    2416.3262    1544.8643 
 1321000    352.35512   -931.58856            0   -925.48546   -1782.3804    13.273352    13.323447    13.348865    1.2332455    2418.3058     1542.883 
 1322000    273.56814   -931.23962            0   -926.50118   -2186.3949    13.273352    13.323447    13.348865    1.1149449    2420.2817    1540.8995 
 1323000    303.33427   -930.57584            0   -925.32183   -164.14707    13.273352    13.323447    13.348865     1.361056    2422.2565    1538.9152 
 1324000    295.05605   -930.94203            0    -925.8314   -692.49539    13.273352    13.323447    13.348865    2.1715893    2424.2323    1536.9316 
 1325000    303.77304   -931.58284            0   -926.32123   -636.91389    13.273352    13.323447    13.348865    1.3198548    2426.2046    1534.9458 
 1326000    346.86208   -930.79713            0   -924.78918   -730.02655    13.273352    13.323447    13.348865    1.2847169    2428.1831    1532.9639 
 1327000    306.47363     -931.019            0   -925.71061   -770.96407    13.273352    13.323447    13.348865    1.3875033    2430.1552     1530.978 
 1328000    292.53191   -931.35007            0   -926.28316   -2041.5404    13.273352    13.323447    13.348865    1.3404473    2432.1258    1528.9912 
 1329000    317.35657   -930.46097            0   -924.96408   -517.27784    13.273352    13.323447    13.348865    1.6228877    2434.0954    1527.0037 
 1330000    316.91782   -931.35271            0   -925.86342   -1545.4025    13.273352    13.323447    13.348865     1.302968    2436.0702    1525.0195 
 1331000    287.64829    -931.0533            0   -926.07098   -905.36815    13.273352    13.323447    13.348865    1.4568648    2438.0466    1523.0364 
 1332000    324.39461   -931.10864            0   -925.48985   -1336.6363    13.273352    13.323447    13.348865    2.1629378    2440.0208     1521.052 
 1333000    316.69869   -931.07595            0   -925.59045   -191.69281    13.273352    13.323447    13.348865    1.5301452    2441.9978    1519.0692 
 1334000    301.32174   -931.56243            0   -926.34328   -2039.6767    13.273352    13.323447    13.348865    1.2243177    2443.9664    1517.0813 
 1335000      291.854   -930.55461            0   -925.49945   -1103.5186    13.273352    13.323447    13.348865     1.460221    2445.9476    1515.1011 
 1336000    351.21506   -930.27112            0   -924.18777    14.534906    13.273352    13.323447    13.348865    1.6716078    2447.9265    1513.1196 
 1337000    288.57931   -930.81105            0   -925.81261   -1116.2419    13.273352    13.323447    13.348865    1.2374331    2449.9016    1511.1358 
 1338000    292.55682   -931.47312            0   -926.40578   -1828.1234    13.273352    13.323447    13.348865    1.1062586    2451.8758    1509.1513 
 1339000    340.44063   -931.13319            0   -925.23647   -924.40544    13.273352    13.323447    13.348865    1.3003304    2453.8481    1507.1658 
 1340000    316.61224   -931.39037            0   -925.90637   -1613.4686    13.273352    13.323447    13.348865    1.5000555     2455.824    1505.1824 
 1341000    326.59329   -931.72514            0   -926.06826   -2736.3943    13.273352    13.323447    13.348865    1.0686893    2457.8024    1503.2007 
 1342000    303.65577   -930.68565            0   -925.42607   -1422.2962    13.273352    13.323447    13.348865    1.3419407    2459.7769    1501.2165 
 1343000    312.32291   -930.71474            0   -925.30504   -2130.1184    13.273352    13.323447    13.348865    1.3791974    2461.7529    1499.2332 
 1344000    289.40327   -931.35913            0   -926.34641   -1648.8734    13.273352    13.323447    13.348865    1.2192273    2463.7259    1497.2482 
 1345000    308.87386   -930.68115            0   -925.33119   -74.613332    13.273352    13.323447    13.348865    1.4691582    2465.6996    1495.2636 
 1346000    298.53289   -931.06584            0   -925.89499   -1537.2455    13.273352    13.323447    13.348865    1.2160696    2467.6732    1493.2789 
 1347000      292.536    -931.4073            0   -926.34032   -2378.1895    13.273352    13.323447    13.348865    1.4458239    2469.6465    1491.2942 
 1348000    302.41889   -930.58168            0   -925.34352   -694.00945    13.273352    13.323447    13.348865    1.5764592    2471.6175     1489.308 
 1349000    277.58615    -931.5054            0   -926.69737     -1727.69    13.273352    13.323447    13.348865    1.4353713    2473.5894    1487.3223 
 1350000     306.5666   -931.41473            0   -926.10474   -1448.9014    13.273352    13.323447    13.348865    1.4619847    2475.5621    1485.3373 
 1351000    289.02114    -930.6519            0    -925.6458   -2060.4275    13.273352    13.323447    13.348865    1.4838657    2477.5358    1483.3528 
 1352000    265.34869   -931.66702            0   -927.07095   -1873.0319    13.273352    13.323447    13.348865    1.0624066    2479.5099    1481.3685 
 1353000    309.68319   -931.61498            0     -926.251   -1616.0268    13.273352    13.323447    13.348865    1.3790433    2481.4829    1479.3836 
 1354000    308.56185   -931.02546            0    -925.6809   -386.84015    13.273352    13.323447    13.348865    1.2350693    2483.4556    1477.3986 
 1355000    297.58334   -931.72033            0   -926.56593   -2829.5797    13.273352    13.323447    13.348865     1.140483    2485.4298    1475.4145 
 1356000    296.49464   -931.46057            0   -926.32503   -2080.4706    13.273352    13.323447    13.348865    1.3365179    2487.4018    1473.4291 
 1357000    307.37043   -931.06747            0   -925.74355   -1568.8981    13.273352    13.323447    13.348865     1.317013    2489.3785    1471.4465 
 1358000    290.38837   -931.39885            0   -926.36907   -1757.7429    13.273352    13.323447    13.348865    1.1964925    2491.3504     1469.461 
 1359000    250.16117    -931.1906            0    -926.8576   -2266.6265    13.273352    13.323447    13.348865    1.5038487    2493.3229     1467.476 
 1360000    308.56174   -930.96945            0   -925.62489   -308.29185    13.273352    13.323447    13.348865    1.6678856    2495.2964    1465.4915 
 1361000    303.53176   -931.56544            0   -926.30801   -2086.0724    13.273352    13.323447    13.348865    1.6275834    2497.2717    1463.5081 
 1362000    305.08555   -931.94429            0   -926.65995   -2528.9202    13.273352    13.323447    13.348865    1.6108268    2499.2453    1461.5238 
 1363000    331.53741   -931.19469            0   -925.45218   -272.18676    13.273352    13.323447    13.348865    1.5360907    2501.2195    1459.5398 
 1364000    285.52281   -931.41717            0   -926.47167   -3081.1669    13.273352    13.323447    13.348865    1.4241309    2503.1914    1457.5545 
 1365000    314.89938   -930.93444            0   -925.48011   -521.67708    13.273352    13.323447    13.348865    1.4041518    2505.1639    1455.5696 
 1366000     320.3643   -931.25865            0   -925.70966   -2057.2158    13.273352    13.323447    13.348865    1.3577169    2507.1371     1453.585 
 1367000    296.81762   -931.49237            0   -926.35124   -2518.6413    13.273352    13.323447    13.348865    1.0512545    2509.1092    1451.5999 
 1368000    327.22175   -930.50881            0   -924.84105   -1191.2708    13.273352    13.323447    13.348865     1.623068    2511.0826    1449.6155 
 1369000    326.90488   -931.27829            0   -925.61602   -1348.6477    13.273352    13.323447    13.348865    1.6883881    2513.0561    1447.6312 
 1370000    295.56962   -931.40368            0   -926.28416   -2515.3052    13.273352    13.323447    13.348865    1.1014645    2515.0283    1445.6462 
 1371000    342.22065   -930.96256            0     -925.035   -306.92614    13.273352    13.323447    13.348865    1.7159359    2517.0014    1443.6617 
 1372000    329.01254   -931.36528            0    -925.6665   -1272.7493    13.273352    13.323447    13.348865     1.121898    2518.9731    1441.6765 
 1373000    300.97938   -931.23933            0   -926.02611   -1553.4149    13.273352    13.323447    13.348865    1.6061722    2520.9452    1439.6914 
 1374000    329.41284     -931.258            0   -925.55228   -1275.5089    13.273352    13.323447    13.348865    1.2170693    2522.9179    1437.7068 
 1375000     319.2405   -930.90962            0    -925.3801   -841.29501    13.273352    13.323447    13.348865    1.2781448    2524.8923    1435.7231 
 1376000     262.4766   -930.87521            0   -926.32889    -1840.379    13.273352    13.323447    13.348865    1.2164934    2526.8633    1433.7375 
 1377000    359.60785   -931.64516            0   -925.41644   -1425.8976    13.273352    13.323447    13.348865    1.5467156    2528.8351    1431.7524 
 1378000     323.7615   -930.15819            0   -924.55037    82.571301    13.273352    13.323447    13.348865    1.9011037    2530.8094    1429.7687 
 1379000    300.53597   -931.46602            0   -926.26048   -1903.6159    13.273352    13.323447    13.348865    1.3680367     2532.784    1427.7852 
 1380000    307.86482   -931.31622            0   -925.98374   -1730.9518    13.273352    13.323447    13.348865    1.6317111    2534.7567    1425.8006 
 1381000    324.69991    -930.8973            0   -925.27322   -1211.0661    13.273352    13.323447    13.348865    1.6770639    2536.7295    1423.8162 
 1382000    263.31239   -931.17043            0   -926.60963   -1714.1808    13.273352    13.323447    13.348865    1.8020207    2538.7023    1421.8317 
 1383000    315.43884   -931.08919            0   -925.62552   -985.22882    13.273352    13.323447    13.348865    1.3580816    2540.6756    1419.8475 
 1384000    302.36652   -931.32238            0   -926.08513   -1234.1671    13.273352    13.323447    13.348865    1.6737649    2542.6491    1417.8635 
 1385000    270.25925   -931.30646            0   -926.62534    -1283.465    13.273352    13.323447    13.348865    1.7459349    2544.6221    1415.8792 
 1386000    283.19639   -930.60335            0   -925.69815   -780.42517    13.273352    13.323447    13.348865    1.4316852    2546.5929    1413.8937 
 1387000    301.01177   -931.29583            0   -926.08205    -877.1161    13.273352    13.323447    13.348865    1.5260529    2548.5649    1411.9089 
 1388000    294.16528   -931.99339            0    -926.8982   -1737.7536    13.273352    13.323447    13.348865    1.3154377    2550.5369    1409.9241 
 1389000    312.68745   -931.35029            0   -925.93427   -2192.2614    13.273352    13.323447    13.348865    1.4730482    2552.5091    1407.9395 
 1390000    297.33374   -930.86067            0   -925.71059   -2218.0357    13.273352    13.323447    13.348865    1.3147751    2554.4814    1405.9549 
 1391000    250.90665   -931.08364            0   -926.73772   -1324.3043    13.273352    13.323447    13.348865    1.3383562    2556.4536    1403.9702 
 1392000    315.90186   -931.21155            0   -925.73986   -630.80693    13.273352    13.323447    13.348865    1.1829021    2558.4251    1401.9853 
 1393000    300.40119   -931.00002            0   -925.79681   -1377.1057    13.273352    13.323447    13.348865    1.5558524    2560.4059    1400.0054 
 1394000    280.41414   -931.47133            0   -926.61432   -1976.7818    13.273352    13.323447    13.348865    1.2599588    2562.3782    1398.0209 
 1395000    263.35144    -931.4342            0   -926.87273   -1742.5686    13.273352    13.323447    13.348865    1.8825616     2564.347    1396.0345 
 1396000    310.34218   -931.05886            0   -925.68346     -838.244    13.273352    13.323447    13.348865    1.5420236    2566.3192    1394.0499 
 1397000    289.36471   -930.99369            0   -925.98165   -1591.6644    13.273352    13.323447    13.348865    1.2884623    2568.2955    1392.0677 
 1398000    270.47643   -931.42326            0   -926.73837   -1447.4458    13.273352    13.323447    13.348865    1.1796913    2570.2671    1390.0828 
 1399000    274.17607   -930.24212            0   -925.49316   -123.28508    13.273352    13.323447    13.348865    1.4496001    2572.2393    1388.0984 
 1400000    281.03356   -931.10235            0    -926.2346   -188.20129    13.273352    13.323447    13.348865    1.2439003    2574.2144    1386.1154 
 1401000     280.3579    -931.1451            0   -926.28906   -971.53267    13.273352    13.323447    13.348865    1.4129507    2576.1881    1384.1318 
 1402000    331.76678   -931.05579            0    -925.3093    -380.0022    13.273352    13.323447    13.348865    1.4937478    2578.1642    1382.1495 
 1403000    274.00322   -931.14077            0    -926.3948   -2081.2461    13.273352    13.323447    13.348865     1.329935    2580.1409    1380.1675 
 1404000    296.27807    -931.1537            0   -926.02191   -1153.0476    13.273352    13.323447    13.348865    1.5668716    2582.1142    1378.1837 
 1405000    319.76115   -931.45007            0   -925.91153   -885.18396    13.273352    13.323447    13.348865    1.2786303    2584.0867    1376.1994 
 1406000    304.63432   -931.32205            0   -926.04552   -1241.1786    13.273352    13.323447    13.348865    1.6371591    2586.0596    1374.2154 
 1407000    286.73515   -931.70124            0   -926.73474    -1108.166    13.273352    13.323447    13.348865    1.2937639     2588.032    1372.2312 
 1408000     301.6882   -930.82955            0   -925.60405    139.06557    13.273352    13.323447    13.348865    1.6413503     2590.005    1370.2473 
 1409000    318.10633   -931.44614            0   -925.93626    -2344.247    13.273352    13.323447    13.348865    1.2236202    2591.9789    1368.2639 
 1410000    277.49526    -931.6997            0   -926.89324   -2755.6485    13.273352    13.323447    13.348865    1.2153263    2593.9511    1366.2796 
 1411000     307.0709   -931.40018            0   -926.08145   -1193.2455    13.273352    13.323447    13.348865    1.1155708    2595.9232    1364.2952 
 1412000    314.67209   -930.96748            0   -925.51709   -190.42262    13.273352    13.323447    13.348865    1.2431559    2597.8965    1362.3116 
 1413000    266.37847   -931.43685            0   -926.82295    -1238.904    13.273352    13.323447    13.348865    1.4729858    2599.8713    1360.3287 
 1414000    298.49874   -931.20465            0   -926.03439   -1271.1408    13.273352    13.323447    13.348865    1.3120985    2601.8493    1358.3475 
 1415000     313.8341   -931.28981            0   -925.85394    -1651.271    13.273352    13.323447    13.348865    1.1652951    2603.8228     1356.364 
 1416000    285.21942   -931.54981            0   -926.60956   -1900.4505    13.273352    13.323447    13.348865    1.6910287     2605.798    1354.3813 
 1417000    314.59245   -931.83826            0   -926.38925   -2035.5805    13.273352    13.323447    13.348865    1.3198532     2607.772    1352.3981 
 1418000    334.85101   -931.50499            0   -925.70509   -1866.7719    13.273352    13.323447    13.348865    1.3290135    2609.7477    1350.4157 
 1419000    283.60964   -931.33223            0   -926.41987     -856.363    13.273352    13.323447    13.348865    1.5634302    2611.7232    1348.4333 
 1420000     292.0634   -931.63332            0   -926.57453   -2105.5873    13.273352    13.323447    13.348865    1.1220837    2613.6973    1346.4501 
 1421000      323.665   -931.24051            0   -925.63435    -1427.501    13.273352    13.323447    13.348865    1.4344614    2615.6666    1344.4645 
 1422000    284.88415   -931.33551            0   -926.40107   -1533.9297    13.273352    13.323447    13.348865    1.4104117     2617.641    1342.4815 
 1423000    284.27943    -931.2882            0   -926.36424   -2850.7562    13.273352    13.323447    13.348865    1.3063164    2619.6181       1340.5 
 1424000    320.03303   -930.95926            0   -925.41601   -262.69381    13.273352    13.323447    13.348865    1.4171869    2621.5936    1338.5176 
 1425000    261.20311   -931.06857            0   -926.54431   -2008.4425    13.273352    13.323447    13.348865    1.4221063    2623.5706     1336.536 
 1426000    293.65346   -931.32815            0   -926.24182   -1892.2875    13.273352    13.323447    13.348865     1.151071    2625.5489     1334.555 
 1427000    294.56014   -930.89701            0   -925.79497    37.191388    13.273352    13.323447    13.348865    1.2557611    2627.5222    1332.5716 
 1428000    309.70608   -930.79409            0   -925.42971   -1497.5708    13.273352    13.323447    13.348865    1.2928112    2629.4974     1330.589 
 1429000    256.06618   -930.95954            0   -926.52425   -926.83168    13.273352    13.323447    13.348865    1.2040258    2631.4755     1328.608 
 1430000    320.15837   -931.27106            0   -925.72564   -1778.2436    13.273352    13.323447    13.348865    1.1610415    2633.4478    1326.6241 
 1431000      302.445   -930.77996            0   -925.54135   -1251.1795    13.273352    13.323447    13.348865    1.4265755    2635.4601    1324.6602 
 1432000    286.50177   -931.23133            0   -926.26887   -1728.0495    13.273352    13.323447    13.348865    1.1163914    2637.4522    1322.6863 
 1433000    325.44096   -930.85086            0   -925.21394   -504.66589    13.273352    13.323447    13.348865     1.756021    2639.4278    1320.7039 
 1434000    310.44811   -931.06126            0   -925.68403   -1580.3229    13.273352    13.323447    13.348865    1.2560643    2641.4436    1318.7417 
 1435000     270.4646   -930.90673            0   -926.22205    -1845.758    13.273352    13.323447    13.348865    1.5013058    2643.4203    1316.7599 
 1436000    366.33861    -931.3411            0    -924.9958    -1244.216    13.273352    13.323447    13.348865    1.2808193    2645.4125    1314.7858 
 1437000    333.76263   -931.13719            0   -925.35614   -713.44682    13.273352    13.323447    13.348865    1.1933283     2647.396    1312.8075 
 1438000     283.0432   -930.99723            0   -926.09468   -556.20616    13.273352    13.323447    13.348865    1.4757588    2649.4695    1310.8736 
 1439000    276.07844   -931.04551            0   -926.26359   -1814.7179    13.273352    13.323447    13.348865    1.4655556    2651.4598    1308.8984 
 1440000    327.71149   -930.82627            0   -925.15002   -439.13805    13.273352    13.323447    13.348865    1.5062547    2653.4318    1306.9142 
 1441000    323.95493   -931.90495            0   -926.29378   -2586.2596    13.273352    13.323447    13.348865    1.1415083    2655.4032    1304.9297 
 1442000    295.13589   -931.10277            0   -925.99076   -670.67986    13.273352    13.323447    13.348865    1.8272026    2657.3734    1302.9446 
 1443000    313.53663    -930.5722            0   -925.14148   -196.71518    13.273352    13.323447    13.348865    1.2426988    2659.3441    1300.9598 
 1444000     312.9724   -931.03078            0   -925.60983    -918.0454    13.273352    13.323447    13.348865    1.2513875    2661.3158    1298.9756 
 1445000     278.8305   -931.09371            0   -926.26413   -1391.9887    13.273352    13.323447    13.348865    1.3932713    2663.2871    1296.9911 
 1446000    322.92111   -930.77732            0   -925.18405   -1462.2196    13.273352    13.323447    13.348865    1.3529123    2665.2587    1295.0068 
 1447000    267.30658   -930.58427            0   -925.95429   -1255.2629    13.273352    13.323447    13.348865    1.3114089    2667.2295    1293.0222 
 1448000    295.52524   -931.27087            0   -926.15212   -1580.5319    13.273352    13.323447    13.348865    1.2301498    2669.2022    1291.0385 
 1449000    314.62006   -930.79352            0   -925.34403     -69.3135    13.273352    13.323447    13.348865    1.6127872    2671.1959    1289.0649 
 1450000    292.27536   -931.48277            0   -926.42031    -1759.881    13.273352    13.323447    13.348865    1.3675696    2673.1681    1287.0809 
 1451000    299.43313   -931.28963            0   -926.10319   -1160.7262    13.273352    13.323447    13.348865    1.2155119    2675.1393    1285.0965 
 1452000     320.4517   -931.09192            0   -925.54142   -1542.1464    13.273352    13.323447    13.348865    1.2148472    2677.1115    1283.1126 
 1453000     306.9933   -931.37654            0   -926.05915   -2793.7555    13.273352    13.323447    13.348865    1.6264202    2679.0824    1281.1281 
 1454000    268.81475   -931.58328            0   -926.92718   -2374.2335    13.273352    13.323447    13.348865    1.4249428    2681.0549    1279.1444 
 1455000    300.77314   -931.41056            0   -926.20091    -2607.782    13.273352    13.323447    13.348865    1.5891714     2683.027    1277.1604 
 1456000    313.44815   -931.12816            0   -925.69897   -1818.6238    13.273352    13.323447    13.348865    1.5097842    2684.9989    1275.1765 
 1457000    265.48775   -931.30123            0   -926.70276   -1865.4003    13.273352    13.323447    13.348865      1.37246    2686.9706    1273.1924 
 1458000    308.96692   -931.41343            0   -926.06186   -1893.7894    13.273352    13.323447    13.348865    1.1271194    2689.0015    1271.2363 
 1459000    315.55219   -931.20671            0   -925.74107   -1145.1338    13.273352    13.323447    13.348865    1.3708267    2691.0724    1269.2991 
 1460000    273.17106   -931.28505            0   -926.55349   -1574.1246    13.273352    13.323447    13.348865     1.340221    2693.0814    1267.3324 
 1461000    278.31594   -930.87868            0   -926.05801   -1660.9408    13.273352    13.323447    13.348865    1.3450244    2695.0821    1265.3618 
 1462000     326.3407   -931.20965            0   -925.55715   -1501.2258    13.273352    13.323447    13.348865    1.3428758    2697.1546    1263.4248 
 1463000    287.35745   -931.56739            0   -926.59011   -1341.4469    13.273352    13.323447    13.348865    1.2312982    2699.1367    1261.4454 
 1464000    305.32956     -931.341            0   -926.05243   -2254.2888    13.273352    13.323447    13.348865    1.2106575      2701.16    1259.4852 
 1465000    284.84661   -930.75484            0   -925.82106   -1452.6689    13.273352    13.323447    13.348865    1.3056514     2703.142    1257.5056 
 1466000    284.39532   -930.65528            0   -925.72931   -1289.8061    13.273352    13.323447    13.348865    1.1689509    2705.1319    1255.5297 
 1467000    269.52822   -931.34467            0   -926.67621   -2687.7851    13.273352    13.323447    13.348865    1.4614045    2707.1107    1253.5487 
 1468000     314.2585   -930.92311            0   -925.47989   -213.48052    13.273352    13.323447    13.348865    1.8294765    2709.0993    1251.5722 
 1469000    300.79375   -931.03324            0   -925.82323   -947.38645    13.273352    13.323447    13.348865    1.4750526    2711.0757    1249.5901 
 1470000    295.58315   -931.56921            0   -926.44946   -2112.4004    13.273352    13.323447    13.348865    1.2556423    2713.0879    1247.6244 
 1471000    321.21692   -930.61319            0   -925.04943   -1100.0766    13.273352    13.323447    13.348865    1.5491251     2715.078    1245.6485 
 1472000    290.36809   -931.20842            0     -926.179    -2778.365    13.273352    13.323447    13.348865    1.2166073    2717.0597    1243.6687 
 1473000    303.92793   -931.31457            0   -926.05028   -1338.7948    13.273352    13.323447    13.348865    1.4399056    2719.1141    1241.7222 
 1474000    349.81472   -930.59521            0   -924.53612    197.30779    13.273352    13.323447    13.348865    1.4299077    2721.0952    1239.7421 
 1475000    317.29173   -931.15209            0   -925.65632    -2108.017    13.273352    13.323447    13.348865    1.7556496    2723.1663    1237.8029 
 1476000    301.12918   -931.56124            0   -926.34542   -1680.5834    13.273352    13.323447    13.348865    1.6341253    2725.1843    1235.8394 
 1477000    306.40564   -930.39493            0   -925.08772   -146.56209    13.273352    13.323447    13.348865    1.5341184    2727.1622    1233.8577 
 1478000    318.39388   -931.29815            0    -925.7833   -829.29119    13.273352    13.323447    13.348865    1.6336597    2729.1599    1231.8849 
 1479000    320.39633   -931.60971            0   -926.06017   -1735.7451    13.273352    13.323447    13.348865    1.5452328    2731.1371    1229.9029 
 1480000    304.12727   -930.69207            0   -925.42433   -1188.2603    13.273352    13.323447    13.348865    1.3834359     2733.119     1227.923 
 1481000    290.63768    -930.4853            0   -925.45121   -332.45456    13.273352    13.323447    13.348865    1.6101328     2735.098    1225.9418 
 1482000    286.87674     -931.202            0   -926.23305   -1077.3683    13.273352    13.323447    13.348865    1.3191503    2737.1113     1223.976 
 1483000     318.5203   -930.87336            0   -925.35631   -862.82545    13.273352    13.323447    13.348865    1.1394781    2739.0818    1221.9909 
 1484000    330.94936   -931.19144            0   -925.45912   -297.90062    13.273352    13.323447    13.348865    1.3125937    2741.0694    1220.0136 
 1485000    307.23259   -931.60086            0   -926.27933    -1834.824    13.273352    13.323447    13.348865    1.3681493    2743.0399    1218.0285 
 1486000    315.06558   -930.78072            0   -925.32351   -1620.1011    13.273352    13.323447    13.348865    1.3433008    2745.0248    1216.0499 
 1487000    272.76051   -931.04702            0   -926.32258   -1644.4139    13.273352    13.323447    13.348865    1.3546318    2747.0322    1214.0813 
 1488000    276.33278   -930.96781            0   -926.18149   -737.24221    13.273352    13.323447    13.348865    1.7183413    2749.0089     1212.099 
 1489000    309.19367   -930.83038            0   -925.47488   -351.14347    13.273352    13.323447    13.348865    1.4438443    2751.0444    1210.1426 
 1490000    297.05903   -932.14052            0    -926.9952    -1880.837    13.273352    13.323447    13.348865   0.99521373    2753.0273    1208.1631 
 1491000    275.54947   -931.22161            0   -926.44886   -1467.7557    13.273352    13.323447    13.348865     1.808277    2754.9997    1206.1789 
 1492000    326.72629   -931.19322            0   -925.53404   -1016.5838    13.273352    13.323447    13.348865    1.1128725    2756.9841    1204.1999 
 1493000    292.59956   -931.61666            0   -926.54859    -1180.059    13.273352    13.323447    13.348865    1.3811309    2758.9692    1202.2213 
 1494000    291.49067   -931.43848            0   -926.38962   -1416.6079    13.273352    13.323447    13.348865     1.202541     2760.959    1200.2447 
 1495000    290.89458   -930.92401            0   -925.88547   -1117.6976    13.273352    13.323447    13.348865    1.4016132    2762.9334    1198.2614 
 1496000    294.48895   -930.76711            0   -925.66631   -1503.1005    13.273352    13.323447    13.348865    1.3662915    2764.9065    1196.2776 
 1497000    308.67548    -931.2919            0   -925.94538   -119.12712    13.273352    13.323447    13.348865    1.3138061    2766.8783    1194.2932 
 1498000    285.17386    -931.4286            0   -926.48914   -2360.6134    13.273352    13.323447    13.348865    1.6777463    2768.8545    1192.3107 
 1499000    317.46017   -930.70815            0   -925.20946   -562.76516    13.273352    13.323447    13.348865    1.2763812    2770.8418     1190.333 
 1500000    308.35863   -931.36358            0   -926.02254   -1899.8718    13.273352    13.323447    13.348865    1.4616399    2772.8287    1188.3551 
 1501000     286.6329   -931.09234            0   -926.12762   -2255.0622    13.273352    13.323447    13.348865     1.109952    2774.8147    1186.3769 
 1502000    303.57333   -930.93762            0   -925.67947   -1152.8611    13.273352    13.323447    13.348865    1.3302989    2776.8008    1184.3986 
 1503000    305.72868    -930.2266            0   -924.93111   -1174.0505    13.273352    13.323447    13.348865    1.3041139    2778.7869    1182.4204 
 1504000    261.98959   -930.81823            0   -926.28035   -1521.6606    13.273352    13.323447    13.348865    1.7677358    2780.7666    1180.4394 
 1505000    314.20835   -931.21374            0   -925.77138   -1223.6946    13.273352    13.323447    13.348865    1.3365378     2782.753    1178.4613 
 1506000    362.68705   -931.33777            0   -925.05572   -1006.2942    13.273352    13.323447    13.348865    1.2855425    2784.7446    1176.4853 
 1507000    279.14975   -931.11707            0   -926.28195   -913.91103    13.273352    13.323447    13.348865    1.6101166    2786.7277    1174.5057 
 1508000      307.032   -930.76567            0   -925.44761   -2068.1208    13.273352    13.323447    13.348865    1.5637138    2788.7101    1172.5258 
 1509000    302.31986   -931.33114            0    -926.0947   -1841.2759    13.273352    13.323447    13.348865    1.5014254    2790.6949     1170.547 
 1510000    296.36941   -931.52141            0   -926.38803   -1725.8527    13.273352    13.323447    13.348865    1.4179198    2792.6723     1168.565 
 1511000    336.09342   -931.39336            0   -925.57193   -1467.6125    13.273352    13.323447    13.348865    1.3338781    2794.6593    1166.5871 
 1512000    314.69556   -931.36597            0   -925.91518   -976.14244    13.273352    13.323447    13.348865    1.3690745    2796.6342     1164.604 
 1513000    270.09002   -931.30201            0   -926.62381   -1533.5639    13.273352    13.323447    13.348865    1.4957334    2798.6042     1162.619 
 1514000    297.87966   -931.57252            0   -926.41298   -1570.0621    13.273352    13.323447    13.348865    1.1127023    2800.5722    1160.6332 
 1515000    333.30033   -931.39063            0   -925.61759   -1558.1486    13.273352    13.323447    13.348865    1.6650632    2802.5425    1158.6483 
 1516000    297.11206   -931.74901            0   -926.60277   -1988.1843    13.273352    13.323447    13.348865    1.4542333    2804.5112    1156.6628 
 1517000    297.97695   -931.35205            0   -926.19083   -1169.7661    13.273352    13.323447    13.348865    1.1305342    2806.4844    1154.6792 
 1518000     307.1869   -931.06799            0   -925.74725   -1088.8719    13.273352    13.323447    13.348865    1.3257233    2808.4563     1152.695 
 1519000    290.97434   -931.42682            0    -926.3869   -1790.7561    13.273352    13.323447    13.348865    1.5505317    2810.4299    1150.7116 
 1520000    284.28536   -930.94732            0   -926.02326    -2579.345    13.273352    13.323447    13.348865    1.1939546    2812.4045    1148.7286 
 1521000    316.15067     -930.873            0     -925.397   -818.34378    13.273352    13.323447    13.348865     1.389173    2814.3808    1146.7463 
 1522000    279.10923    -931.2845            0   -926.45009   -1411.6808    13.273352    13.323447    13.348865    1.3758899    2816.3567    1144.7639 
 1523000     289.2876   -930.98958            0   -925.97887   -2183.8336    13.273352    13.323447    13.348865    1.6823705    2818.3339    1142.7819 
 1524000    333.79204   -931.11878            0   -925.33722   -1022.4377    13.273352    13.323447    13.348865    1.2873143    2820.3114    1140.8001 
 1525000    303.67322   -931.08058            0    -925.8207   -1593.8368    13.273352    13.323447    13.348865    1.9393593    2822.2845    1138.8165 
 1526000    292.33893   -931.49875            0   -926.43518   -2092.1685    13.273352    13.323447    13.348865     1.206887     2824.256    1136.8323 
 1527000    283.92256   -930.03773            0   -925.11995   -523.31181    13.273352    13.323447    13.348865    1.3183579    2826.2262    1134.8477 
 1528000     320.2204   -931.39642            0   -925.84993   -799.98982    13.273352    13.323447    13.348865     1.248872    2828.1978    1132.8635 
 1529000    304.60282   -931.47293            0   -926.19694   -2176.9916    13.273352    13.323447    13.348865    1.5924731    2830.1701    1130.8797 
 1530000    320.90639   -930.43015            0   -924.87177    668.28934    13.273352    13.323447    13.348865    1.8538337    2832.1509    1128.8993 
 1531000     309.0267   -931.38506            0   -926.03245   -2327.3212    13.273352    13.323447    13.348865     1.280981    2834.1283    1126.9175 
 1532000     276.9225   -930.82946            0   -926.03292   -1802.8964    13.273352    13.323447    13.348865    1.6171969    2836.1013     1124.934 
 1533000    313.69364   -930.10467            0   -924.67123   -1123.6621    13.273352    13.323447    13.348865    1.7185328     2838.077    1122.9516 
 1534000    290.31016   -930.89151            0   -925.86308   -2155.1273    13.273352    13.323447    13.348865    1.1864837    2840.0522     1120.969 
 1535000    311.62224   -931.53204            0   -926.13447   -1477.4697    13.273352    13.323447    13.348865    1.2682604    2842.0299    1118.9874 
 1536000    335.14331   -931.50647            0    -925.7015   -1588.5703    13.273352    13.323447    13.348865    1.6429712    2844.0033    1117.0041 
 1537000    349.12115   -931.40094            0   -925.35386   -1217.6318    13.273352    13.323447    13.348865     1.192415    2845.9788    1115.0216 
 1538000    309.47412   -931.82763            0   -926.46727   -2733.9075    13.273352    13.323447    13.348865    1.0390489    2847.9536    1113.0389 
 1539000    301.14322   -930.83565            0   -925.61959   -1546.6123    13.273352    13.323447    13.348865    1.4832608    2849.9284    1111.0562 
 1540000    288.22301   -931.02407            0    -926.0318    -878.8659    13.273352    13.323447    13.348865    1.4645413    2851.9042    1109.0739 
 1541000     290.4712   -931.59166            0   -926.56045   -1901.8117    13.273352    13.323447    13.348865    1.5871214    2853.8757    1107.0899 
 1542000    300.83467    -930.6963            0   -925.48558   -520.22984    13.273352    13.323447    13.348865     1.272246    2855.8471    1105.1059 
 1543000    287.46248   -931.36918            0   -926.39008   -637.42636    13.273352    13.323447    13.348865    1.3894888    2857.8187     1103.122 
 1544000    260.52387   -931.27699            0   -926.76449   -2128.4652    13.273352    13.323447    13.348865    1.4814568    2859.7901     1101.138 
 1545000     285.6029   -930.77037            0   -925.82348   -1043.3063    13.273352    13.323447    13.348865    1.6036524    2861.7638    1099.1549 
 1546000    309.94494   -931.14299            0   -925.77447   -2010.6244    13.273352    13.323447    13.348865    1.7500014    2863.7342    1097.1706 
 1547000    275.38161   -931.56776            0   -926.79792   -2316.1704    13.273352    13.323447    13.348865    1.5800174    2865.7059    1095.1869 
 1548000    287.18613    -930.7641            0   -925.78979   -16.484498    13.273352    13.323447    13.348865     1.346291    2867.6834    1093.2053 
 1549000    291.41698   -931.03757            0   -925.98998   -987.55133    13.273352    13.323447    13.348865    1.1677579     2869.658    1091.2226 
 1550000    250.68203   -931.51549            0   -927.17346   -2251.2129    13.273352    13.323447    13.348865    1.2274439    2871.6296    1089.2388 
 1551000    269.39209   -930.72707            0   -926.06096   -1259.3677    13.273352    13.323447    13.348865    1.3230023    2873.6001    1087.2546 
 1552000    307.74844   -931.12307            0    -925.7926   -42.410107    13.273352    13.323447    13.348865    1.3001955     2875.572     1085.271 
 1553000    285.19309   -931.29917            0   -926.35938   -2614.7796    13.273352    13.323447    13.348865    1.2191332    2877.5447    1083.2877 
 1554000    278.00792    -931.1444            0   -926.32906   -1951.9466    13.273352    13.323447    13.348865    1.2753315    2879.5136    1081.3029 
 1555000    324.60051   -931.08318            0   -925.46082    -741.4381    13.273352    13.323447    13.348865     1.623071    2881.4848     1079.319 
 1556000    297.83602   -931.54299            0   -926.38422   -1783.0812    13.273352    13.323447    13.348865    1.1265619    2883.4563    1077.3353 
 1557000    313.03488   -931.39524            0   -925.97321   -1646.0373    13.273352    13.323447    13.348865    1.2529314    2885.4286    1075.3519 
 1558000     323.8816   -931.04262            0   -925.43271   -1622.6636    13.273352    13.323447    13.348865    1.5139748    2887.4003    1073.3683 
 1559000     316.0282    -931.9743            0   -926.50042   -1854.0658    13.273352    13.323447    13.348865    1.2771772    2889.3776    1071.3867 
 1560000    327.13333   -931.21889            0   -925.55266   -1834.4025    13.273352    13.323447    13.348865    1.1261032    2891.3538    1069.4048 
 1561000     306.0545   -930.40867            0   -925.10754   -922.83514    13.273352    13.323447    13.348865    1.2014885     2893.334    1067.4244 
 1562000    311.49174   -931.62537            0   -926.23007   -1586.6933    13.273352    13.323447    13.348865    1.3226774    2895.3029    1065.4398 
 1563000    306.48917   -931.30746            0   -925.99881   -1277.1805    13.273352    13.323447    13.348865     1.137949    2897.2705    1063.4547 
 1564000    329.63464    -930.9351            0   -925.22555   -426.58015    13.273352    13.323447    13.348865    1.2872916    2899.2399    1061.4704 
 1565000     274.9516   -930.86044            0   -926.09804   -1693.3887    13.273352    13.323447    13.348865    1.3910041    2901.2083    1059.4856 
 1566000    275.65511    -930.7654            0   -925.99081   -1298.0423    13.273352    13.323447    13.348865    1.5869517    2903.1795    1057.5019 
 1567000    332.86299   -930.59368            0   -924.82821   -1153.3252    13.273352    13.323447    13.348865    1.2823429    2905.1546    1055.5197 
 1568000    307.42618   -931.40213            0   -926.07724   -1288.1994    13.273352    13.323447    13.348865    1.2655826     2907.124    1053.5354 
 1569000    328.55408   -931.68938            0   -925.99854   -2986.6172    13.273352    13.323447    13.348865    1.3815673    2909.0946    1051.5515 
 1570000    337.75556   -930.73603            0   -924.88582    -1325.926    13.273352    13.323447    13.348865    1.7399776    2911.0725    1049.5704 
 1571000    296.47272   -931.38789            0   -926.25273   -1033.8464    13.273352    13.323447    13.348865    1.1763977     2913.049    1047.5887 
 1572000    314.80729   -931.38337            0   -925.93063   -1076.0729    13.273352    13.323447    13.348865    1.8150507    2915.0242    1045.6065 
 1573000    323.53638    -930.5854            0   -924.98147   -1477.9184    13.273352    13.323447    13.348865    1.3145377    2917.0029    1043.6256 
 1574000    263.70228   -930.93383            0   -926.36628   -1999.7881    13.273352    13.323447    13.348865    1.5259234    2918.9799    1041.6441 
 1575000    320.62675   -931.41082            0   -925.85729   -1877.2179    13.273352    13.323447    13.348865    1.8901008    2920.9505    1039.6604 
 1576000    317.85676    -930.8493            0   -925.34374   -1768.6964    13.273352    13.323447    13.348865    1.2104879    2922.9276    1037.6789 
 1577000    298.14232   -931.10295            0   -925.93887   -2187.3204    13.273352    13.323447    13.348865    1.3391049    2924.9038    1035.6971 
 1578000    265.83821   -930.66838            0   -926.06383   -1719.5924    13.273352    13.323447    13.348865    1.3373709    2926.8799    1033.7154 
 1579000    329.03044   -931.42462            0   -925.72553   -1358.0724    13.273352    13.323447    13.348865    1.4174885    2928.8546    1031.7331 
 1580000    299.14824   -930.67924            0   -925.49773   -753.28698    13.273352    13.323447    13.348865    1.6156779    2930.8331    1029.7522 
 1581000    293.57081   -931.67256            0   -926.58766    -2948.716    13.273352    13.323447    13.348865    1.2652401    2932.8092    1027.7704 
 1582000    307.91862    -931.0282            0   -925.69479   -44.808259    13.273352    13.323447    13.348865    1.7593173    2934.7851    1025.7886 
 1583000    305.78993   -931.12523            0   -925.82869    -320.2097    13.273352    13.323447    13.348865    1.3238987    2936.7607    1023.8067 
 1584000    295.56385   -931.64678            0   -926.52736   -2576.7395    13.273352    13.323447    13.348865    1.3754103    2938.7352    1021.8244 
 1585000    290.54406   -931.32451            0   -926.29204   -1640.5818    13.273352    13.323447    13.348865   0.95046865    2940.7113    1019.8427 
 1586000    338.09798   -931.32865            0    -925.4725    -1929.961    13.273352    13.323447    13.348865    1.4920642    2942.6861    1017.8605 
 1587000    280.24312   -931.54564            0   -926.69159   -2460.7664    13.273352    13.323447    13.348865     1.345148    2944.6598    1015.8779 
 1588000    287.93287    -931.3111            0   -926.32386   -1456.7996    13.273352    13.323447    13.348865    1.3168661    2946.6296     1013.894 
 1589000    303.60336   -930.85907            0    -925.6004   -461.83164    13.273352    13.323447    13.348865    1.2428623    2948.5993    1011.9102 
 1590000    310.80269   -931.27185            0   -925.88848    -1635.008    13.273352    13.323447    13.348865    1.3038576      2950.57    1009.9266 
 1591000    307.24658   -931.88428            0   -926.56251   -3037.1719    13.273352    13.323447    13.348865    1.1533342    2952.5401    1007.9429 
 1592000    298.80825   -930.58106            0   -925.40544   -2514.8792    13.273352    13.323447    13.348865    1.3123704    2954.5118    1005.9598 
 1593000    287.40498   -930.88679            0   -925.90869   -1027.7626    13.273352    13.323447    13.348865    1.5943386    2956.4816     1003.976 
 1594000    300.07457   -931.57462            0   -926.37707    -1835.036    13.273352    13.323447    13.348865    1.4524484    2958.4534    1001.9929 
 1595000    291.71684    -931.2707            0   -926.21791   -859.01284    13.273352    13.323447    13.348865     1.501673    2960.4232    1000.0092 
 1596000    314.33801   -930.79777            0   -925.35317   -108.53386    13.273352    13.323447    13.348865    1.5152974    2962.3939    998.02575 
 1597000    303.74694   -931.86531            0   -926.60415   -1885.1359    13.273352    13.323447    13.348865    1.5955131    2964.3631    996.04185 
 1598000    287.42968     -931.111            0   -926.13247   -1371.9376    13.273352    13.323447    13.348865    1.5659602    2966.3336    994.05837 
 1599000    285.70074   -930.72926            0   -925.78068   -724.96995    13.273352    13.323447    13.348865    1.4465036    2968.3028    992.07452 
 1600000    280.99928   -931.20246            0   -926.33531   -1818.2236    13.273352    13.323447    13.348865    1.5579424    2970.2773    990.09245 
 1601000    254.89615   -931.08138            0   -926.66636    -1141.828    13.273352    13.323447    13.348865    1.4370306    2972.2507    988.11001 
 1602000    313.19075   -931.14034            0   -925.71561   -674.97625    13.273352    13.323447    13.348865    1.6820612     2974.227    986.12852 
 1603000    299.69006   -931.45135            0   -926.26046   -1807.4413    13.273352    13.323447    13.348865    1.1301547    2976.2043     984.1474 
 1604000    286.04262   -931.70678            0   -926.75228   -1566.2211    13.273352    13.323447    13.348865    1.3052923    2978.1784     982.1652 
 1605000    302.90899   -931.03881            0   -925.79216   -1216.9124    13.273352    13.323447    13.348865    1.6866999    2980.1512    980.18262 
 1606000    318.17801   -931.63401            0    -926.1229   -855.53281    13.273352    13.323447    13.348865    1.1298819    2982.1261    978.20071 
 1607000    284.28977   -931.68123            0   -926.75709   -2514.3485    13.273352    13.323447    13.348865    1.4685682    2984.0992    976.21826 
 1608000    330.08996   -931.20661            0   -925.48917    -1706.628    13.273352    13.323447    13.348865    1.1608933    2986.0738    974.23629 
 1609000    295.93473   -931.21214            0   -926.08629   -1516.9796    13.273352    13.323447    13.348865    1.1488413    2988.0483    972.25428 
 1610000    267.87613   -931.21865            0   -926.57881   -1271.9855    13.273352    13.323447    13.348865    1.3149876    2990.0226    970.27225 
 1611000    327.75143   -930.87857            0   -925.20163     122.5404    13.273352    13.323447    13.348865    1.4993451    2991.9974    968.29036 
 1612000    303.20028   -931.57039            0    -926.3187   -1584.6963    13.273352    13.323447    13.348865    1.7806721    2993.9728    966.30869 
 1613000     270.2962   -930.62222            0   -925.94046   -1778.0778    13.273352    13.323447    13.348865     1.618041    2995.9486    964.32713 
 1614000      303.437   -930.32118            0   -925.06539   -60.934995    13.273352    13.323447    13.348865    1.3752005      2997.92     962.3442 
 1615000    260.55288   -930.65214            0   -926.13914   -1131.8982    13.273352    13.323447    13.348865    1.4211023    2999.8931    960.36182 
 1616000    287.54147   -931.07504            0   -926.09457   -2113.9108    13.273352    13.323447    13.348865     1.609794    3001.8647    958.37898 
 1617000    321.66822   -930.67144            0   -925.09987   -342.69229    13.273352    13.323447    13.348865    1.2168735    3003.8362     956.3961 
 1618000     302.3098   -931.32889            0   -926.09263    -1236.923    13.273352    13.323447    13.348865     1.385252    3005.8094     954.4138 
 1619000    311.12503   -931.31187            0   -925.92292   -570.85272    13.273352    13.323447    13.348865     1.499833    3007.7827    952.43151 
 1620000    328.81167   -930.39581            0   -924.70051    113.64669    13.273352    13.323447    13.348865    1.5734798    3009.7554    950.44906 
 1621000     311.7565   -931.40545            0   -926.00556   -2578.3506    13.273352    13.323447    13.348865    1.5220653    3011.7284    948.46672 
 1622000    283.67206   -930.89728            0   -925.98383   -1128.1902    13.273352    13.323447    13.348865    1.5525544    3013.6995     946.4838 
 1623000    310.07595   -930.31389            0   -924.94311    937.15903    13.273352    13.323447    13.348865    1.3210544    3015.6708    944.50095 
 1624000    288.13288   -931.24162            0   -926.25091    -1901.474    13.273352    13.323447    13.348865    1.4779399    3017.6419    942.51809 
 1625000    310.18324   -931.38272            0   -926.01008   -2897.3479    13.273352    13.323447    13.348865    1.5388953    3019.6138    940.53545 
 1626000    330.88428   -930.65669            0   -924.92549   -1053.0192    13.273352    13.323447    13.348865    1.4283695    3021.5864    938.55304 
 1627000    294.62184   -931.43936            0   -926.33625   -1161.6979    13.273352    13.323447    13.348865    1.2340715    3023.5595    936.57082 
 1628000    286.18536   -930.90985            0   -925.95288   -1172.4914    13.273352    13.323447    13.348865    1.1819633    3025.5312    934.58817 
 1629000    315.14573   -930.83049            0    -925.3719   -704.38532    13.273352    13.323447    13.348865    1.2923841    3027.5041    932.60591 
 1630000    272.64929   -931.41105            0   -926.68853      -2669.8    13.273352    13.323447    13.348865    1.2322482    3029.4764    930.62348 
 1631000    306.44959   -931.16257            0    -925.8546   -2277.7952    13.273352    13.323447    13.348865    1.4404792    3031.4481    928.64085 
 1632000    306.00373   -930.84845            0   -925.54821   -803.84098    13.273352    13.323447    13.348865    1.1920672    3033.4203    926.65841 
 1633000    280.11501   -931.57345            0   -926.72161   -1744.1828    13.273352    13.323447    13.348865    1.4250174    3035.3944    924.67656 
 1634000    319.60499   -931.46686            0   -925.93103    -1035.431    13.273352    13.323447    13.348865    1.4875341    3037.3659    922.69394 
 1635000    288.09766   -930.83688            0   -925.84678    -2585.039    13.273352    13.323447    13.348865    1.5986089    3039.3398    920.71206 
 1636000    298.69231   -932.15203            0   -926.97842   -3024.9411    13.273352    13.323447    13.348865    1.2686882    3041.3117    918.72957 
 1637000    288.10385   -931.29598            0   -926.30578   -2723.7693    13.273352    13.323447    13.348865    1.5014667    3043.2845    916.74739 
 1638000    309.56796   -931.16373            0   -925.80174    -1636.313    13.273352    13.323447    13.348865    1.1443517    3045.2568    914.76505 
 1639000    280.56191   -931.23044            0   -926.37087   -845.76387    13.273352    13.323447    13.348865     1.291614    3047.2296    912.78287 
 1640000    304.79201    -931.7772            0   -926.49794   -1623.0176    13.273352    13.323447    13.348865    1.1358195    3049.1998    910.79993 
 1641000    333.51377   -931.37359            0   -925.59685   -730.11754    13.273352    13.323447    13.348865    1.0941366    3051.1699    908.81698 
 1642000    291.99594   -931.43532            0    -926.3777   -1695.1181    13.273352    13.323447    13.348865    1.1921816    3053.1416    906.83454 
 1643000    276.38091   -932.10032            0   -927.31316   -2309.5332    13.273352    13.323447    13.348865    1.2572575    3055.1137    904.85221 
 1644000    304.80848   -931.03957            0   -925.76002    -899.8333    13.273352    13.323447    13.348865    1.1337103    3057.1681    902.89419 
 1645000    302.71306   -930.91841            0   -925.67516   -664.44441    13.273352    13.323447    13.348865    1.6426054    3059.1913    900.92688 
 1646000     283.6084   -931.62692            0   -926.71458   -1924.2082    13.273352    13.323447    13.348865    1.1944079    3061.1749    898.94787 
 1647000     320.4786   -930.86132            0   -925.31036   -913.92058    13.273352    13.323447    13.348865    1.1850798    3063.1745    896.97352 
 1648000    267.19435   -930.67278            0   -926.04474    345.08677    13.273352    13.323447    13.348865    1.7429023    3065.1545    894.99344 
 1649000    323.51155    -931.8953            0    -926.2918   -2253.1929    13.273352    13.323447    13.348865    1.2185661    3067.1647    893.02213 
 1650000    347.18574   -931.10496            0    -925.0914   -392.72793    13.273352    13.323447    13.348865    1.6336894    3069.1391    891.04039 
 1651000    306.21805   -931.44598            0   -926.14202   -2146.6126    13.273352    13.323447    13.348865    1.5976877    3071.1198    889.06048 
 1652000    293.48941    -931.0396            0   -925.95611    5.6430275    13.273352    13.323447    13.348865     1.359527    3073.1253    887.08772 
 1653000    362.25653   -930.72251            0   -924.44791    106.52406    13.273352    13.323447    13.348865    1.5248997    3075.1795    885.12895 
 1654000    285.77598   -930.73274            0   -925.78286   -480.31696    13.273352    13.323447    13.348865     1.470734    3077.2041    883.16153 
 1655000    284.19665    -931.1839            0   -926.26137   -480.50934    13.273352    13.323447    13.348865    1.6561762    3079.1734    881.17825 
 1656000    290.38081   -930.50786            0   -925.47821   -270.68263    13.273352    13.323447    13.348865    1.3622078    3081.1759    879.20443 
 1657000    306.83078   -931.10273            0   -925.78816    -1302.007    13.273352    13.323447    13.348865    1.5615288    3083.1563     877.2243 
 1658000    295.56214    -931.4329            0   -926.31351   -1368.9267    13.273352    13.323447    13.348865    1.2749619    3085.1649    875.25218 
 1659000    317.25502   -930.98695            0   -925.49182   -139.89364    13.273352    13.323447    13.348865    1.4740126    3087.1389    873.27021 
 1660000    344.70719   -930.58995            0   -924.61933    200.08834    13.273352    13.323447    13.348865    1.3929364    3089.1821    871.30777 
 1661000    295.21483    -931.2733            0   -926.15993   -621.11422    13.273352    13.323447    13.348865    1.5362513    3091.1723    869.33034 
 1662000    303.93242   -931.29019            0   -926.02582   -1272.0008    13.273352    13.323447    13.348865    1.8118649    3093.1471    867.34853 
 1663000    325.76934   -930.66974            0   -925.02714   -1340.8895    13.273352    13.323447    13.348865     1.279665    3095.1875    865.38513 
 1664000    262.98129    -930.9352            0   -926.38014   -871.61423    13.273352    13.323447    13.348865    1.3508897    3097.1598     863.4026 
 1665000    282.54345   -930.54962            0   -925.65572   -506.96145    13.273352    13.323447    13.348865    1.3758667    3099.2158    861.44336 
 1666000    321.64772   -931.19031            0    -925.6191   -1338.0338    13.273352    13.323447    13.348865     1.357503    3101.1893    859.46113 
 1667000    281.67191   -931.46958            0   -926.59078   -1492.5597    13.273352    13.323447    13.348865     1.320059    3103.1828    857.48446 
 1668000    315.70703   -931.00931            0   -925.54099   -1356.6076    13.273352    13.323447    13.348865    1.1068463    3105.1893    855.51133 
 1669000    309.82434   -931.19318            0   -925.82676   -2003.4982    13.273352    13.323447    13.348865    1.6625909    3107.2782     853.5608 
 1670000    243.62276   -930.44504            0   -926.22528    -1369.212    13.273352    13.323447    13.348865    1.8423735    3109.3012    851.59206 
 1671000    290.37992   -931.72073            0    -926.6911   -3019.1109    13.273352    13.323447    13.348865    1.5706604    3111.2747     849.6097 
 1672000    294.99093   -930.62245            0   -925.51295    -1670.827    13.273352    13.323447    13.348865    1.5752219    3113.2669    847.63246 
 1673000    274.75136   -931.02552            0   -926.26659   -1347.9483    13.273352    13.323447    13.348865    1.3468432    3115.2385     845.6496 
 1674000     291.5339   -931.81184            0   -926.76222   -2019.1026    13.273352    13.323447    13.348865    1.1069418    3117.2708    843.68319 
 1675000    283.87617    -930.8932            0   -925.97622   -1374.5726    13.273352    13.323447    13.348865    1.6025452    3119.3241    841.72238 
 1676000    320.10771   -931.04721            0   -925.50267   -942.97538    13.273352    13.323447    13.348865    1.5968437    3121.3099    839.74326 
 1677000    284.72866   -931.68847            0   -926.75673   -1092.0131    13.273352    13.323447    13.348865    1.4663241    3123.2937    837.76361 
 1678000    289.64565   -930.81381            0    -925.7969   -392.84076    13.273352    13.323447    13.348865    1.5937651    3125.2796    835.78454 
 1679000     286.6662   -930.78972            0   -925.82441   -2050.9642    13.273352    13.323447    13.348865     1.872099    3127.3332    833.82349 
 1680000    292.52783   -931.65493            0    -926.5881   -2244.1122    13.273352    13.323447    13.348865    1.3245638    3129.3883    831.86271 
 1681000    269.31349   -931.36229            0   -926.69755   -2970.5351    13.273352    13.323447    13.348865    1.4343109    3131.3728    829.88312 
 1682000    309.18365   -931.18288            0   -925.82755   -1810.8507    13.273352    13.323447    13.348865    1.2993483    3133.4038     827.9158 
 1683000    279.97539   -930.89061            0   -926.04119   -585.42969    13.273352    13.323447    13.348865     1.495978    3135.4736    825.95862 
 1684000    271.75329   -931.52562            0   -926.81862   -2274.7409    13.273352    13.323447    13.348865    1.2714663    3137.4611    823.97967 
 1685000    323.31433    -931.0927            0   -925.49262   -2119.1968    13.273352    13.323447    13.348865    1.4536163    3139.4366    821.99759 
 1686000    309.00444   -931.52729            0   -926.17506     -2565.32    13.273352    13.323447    13.348865    1.4251084    3141.4166    820.01669 
 1687000    260.42035   -931.31708            0   -926.80638   -2125.1227    13.273352    13.323447    13.348865    1.2646087    3143.3952    818.03543 
 1688000    305.98133   -930.79467            0   -925.49481    -595.2185    13.273352    13.323447    13.348865    1.6353737    3145.3718    816.05365 
 1689000    326.84013    -931.5793            0   -925.91815   -811.36995    13.273352    13.323447    13.348865    1.7895209    3147.3425    814.07033 
 1690000    330.22712   -932.20775            0   -926.48793   -2039.9939    13.273352    13.323447    13.348865     1.347726    3149.3136    812.08716 
 1691000    301.75482   -931.21577            0   -925.98912   -978.50893    13.273352    13.323447    13.348865    1.7552595     3151.284    810.10382 
 1692000    326.80049   -931.50386            0   -925.84339   -2141.6731    13.273352    13.323447    13.348865    1.2127584     3153.257    808.12115 
 1693000    294.85248   -931.32998            0   -926.22288    -1215.566    13.273352    13.323447    13.348865     1.405684    3155.2288    806.13818 
 1694000    306.01675   -931.47856            0   -926.17809   -2228.4959    13.273352    13.323447    13.348865    1.3068943    3157.2012     804.1554 
 1695000    310.12134   -930.59934            0   -925.22777    90.456523    13.273352    13.323447    13.348865      1.99585    3159.1728     802.1724 
 1696000    265.92599   -931.05762            0   -926.45155   -2110.6002    13.273352    13.323447    13.348865    1.6337902     3161.145    800.18957 
 1697000    286.26733   -930.85795            0   -925.89956    -382.2894    13.273352    13.323447    13.348865    1.1727306    3163.1176    798.20689 
 1698000    319.33075   -930.92048            0    -925.3894   -86.846496    13.273352    13.323447    13.348865    1.1789887    3165.0935    796.22502 
 1699000     292.3708   -931.74713            0   -926.68302   -2346.2471    13.273352    13.323447    13.348865    1.0415109    3167.0677    794.24275 
 1700000    307.71407    -930.9882            0   -925.65833     -1076.57    13.273352    13.323447    13.348865    1.2153183    3169.0466    792.26166 
 1701000    327.63965   -931.45924            0   -925.78424   -1065.1999    13.273352    13.323447    13.348865    1.3728868    3171.0222    790.27975 
 1702000    293.90334   -931.16674            0   -926.07608   -913.58804    13.273352    13.323447    13.348865    1.3418524    3172.9956    788.29728 
 1703000     304.9238   -930.79498            0   -925.51343   -435.65387    13.273352    13.323447    13.348865    1.5283552    3174.9696    786.31498 
 1704000    268.88075   -930.49634            0   -925.83909     -1125.21    13.273352    13.323447    13.348865    1.8775329    3176.9437    784.33273 
 1705000    289.68821   -931.46982            0   -926.45218   -2479.1639    13.273352    13.323447    13.348865     1.231559     3178.917    782.35028 
 1706000     331.9148   -930.79428            0   -925.04523   -1287.0188    13.273352    13.323447    13.348865    1.6181987    3180.9014    780.37057 
 1707000    312.91366   -931.43683            0    -926.0169   -1103.1159    13.273352    13.323447    13.348865    1.3593081    3182.8761    778.38849 
 1708000    295.32263   -931.29452            0   -926.17928    -2422.924    13.273352    13.323447    13.348865    1.3764903    3184.8509    776.40645 
 1709000     330.2908   -930.56053            0   -924.83961   -586.67687    13.273352    13.323447    13.348865    1.4059544    3186.8238    774.42393 
 1710000    307.09283   -931.33075            0   -926.01164   -1490.3831    13.273352    13.323447    13.348865    1.3837188    3188.7973    772.44158 
 1711000    289.86344   -931.08667            0   -926.06599   -1566.7633    13.273352    13.323447    13.348865    1.5012541    3190.7714    770.45938 
 1712000    314.25455   -930.29355            0   -924.85039   -79.367944    13.273352    13.323447    13.348865    1.7074422    3192.7502    768.47833 
 1713000    309.76348   -931.47573            0   -926.11036   -1748.0792    13.273352    13.323447    13.348865    1.4545013    3194.7283    766.49711 
 1714000    310.01411   -931.33828            0   -925.96857   -1906.5253    13.273352    13.323447    13.348865     1.353388    3196.7047     764.5155 
 1715000    354.13289   -930.94396            0   -924.81007   -663.31598    13.273352    13.323447    13.348865    1.5100079    3198.6807    762.53379 
 1716000    287.36273    -931.1683            0   -926.19094   -1167.2641    13.273352    13.323447    13.348865    1.7482717    3200.6573    760.55223 
 1717000    297.77735   -931.09106            0    -925.9333   -1606.9163    13.273352    13.323447    13.348865    1.3694221    3202.6325    758.57035 
 1718000    331.72685    -930.8614            0   -925.11561   -612.28094    13.273352    13.323447    13.348865    1.5795397      3204.61    756.58902 
 1719000     278.4785   -931.37955            0   -926.55606   -1340.9044    13.273352    13.323447    13.348865    1.6143387    3206.5857    754.60726 
 1720000    317.73651   -931.11412            0   -925.61065   -370.82802    13.273352    13.323447    13.348865    1.5113157    3208.5614    752.62552 
 1721000    289.21301   -930.76817            0   -925.75875   -1251.5032    13.273352    13.323447    13.348865    1.3660303     3210.542    750.64492 
 1722000    242.28863   -931.62246            0   -927.42581   -3463.7387    13.273352    13.323447    13.348865    1.2526269    3212.5233    748.66449 
 1723000    294.63354   -931.39549            0   -926.29218   -2241.9467    13.273352    13.323447    13.348865    1.3613308    3214.5031    746.68371 
 1724000    319.64081   -931.00553            0   -925.46907   -623.14247    13.273352    13.323447    13.348865    1.2672829    3216.4834    744.70306 
 1725000    273.44846   -931.33227            0   -926.59591   -2869.9745    13.273352    13.323447    13.348865    1.3856657    3218.4635    742.72235 
 1726000    293.15195   -931.36427            0   -926.28662   -1369.1056    13.273352    13.323447    13.348865    1.2174275    3220.4379    740.74032 
 1727000     300.2717   -931.10623            0   -925.90527   -1673.3578    13.273352    13.323447    13.348865    1.5470601     3222.414    738.75871 
 1728000    312.45112   -931.21658            0   -925.80466   -1086.3151    13.273352    13.323447    13.348865    1.2860614    3224.3883    736.77668 
 1729000    287.09981    -931.4314            0   -926.45859   -1821.4642    13.273352    13.323447    13.348865    1.4937892    3226.3622    734.79459 
 1730000    288.22621   -930.72194            0   -925.72961    624.84417    13.273352    13.323447    13.348865    1.4979791    3228.3358    732.81241 
 1731000    316.66865   -931.02631            0   -925.54134   -526.51108    13.273352    13.323447    13.348865    1.4106962    3230.3114    730.83072 
 1732000    297.21855   -931.29895            0   -926.15087   -801.18022    13.273352    13.323447    13.348865    1.6067165    3232.2838     728.8483 
 1733000    298.04252    -931.0354            0   -925.87305   -1281.3449    13.273352    13.323447    13.348865    2.3041224    3234.2603    726.86682 
 1734000      328.424   -930.57213            0   -924.88354   -343.96437    13.273352    13.323447    13.348865    1.6521265    3236.2336    724.88463 
 1735000    276.12491   -930.91438            0   -926.13166   -1282.6258    13.273352    13.323447    13.348865    1.3484771     3238.208     722.9027 
 1736000    290.79399   -931.07669            0   -926.03989   -743.89338    13.273352    13.323447    13.348865    1.6205164    3240.1862    720.92162 
 1737000    341.21911   -930.78383            0   -924.87362    118.57108    13.273352    13.323447    13.348865    1.6258066    3242.1649    718.94066 
 1738000     301.4093    -931.6142            0   -926.39353   -940.57743    13.273352    13.323447    13.348865    1.4055397      3244.14     716.9589 
 1739000    311.77385    -931.1981            0   -925.79791   -1147.6066    13.273352    13.323447    13.348865    1.7857314    3246.1156    714.97726 
 1740000    323.95034   -931.12886            0   -925.51777   -1566.6378    13.273352    13.323447    13.348865    2.0382264    3248.0963    712.99674 
 1741000    296.15376   -931.75593            0   -926.62629   -2434.7446    13.273352    13.323447    13.348865    1.9408273    3250.0733    711.01544 
 1742000    306.53512   -930.92466            0   -925.61521   -1171.1789    13.273352    13.323447    13.348865    1.6624424    3252.0486    709.03374 
 1743000      294.972   -931.09842            0   -925.98925   -1225.9948    13.273352    13.323447    13.348865    1.2558826    3254.0244    707.05218 
 1744000    276.40343   -931.86643            0   -927.07889   -2397.7998    13.273352    13.323447    13.348865    1.2741218    3256.0004    705.07065 
 1745000    312.52931    -931.3414            0   -925.92813   -1095.7182    13.273352    13.323447    13.348865    1.2828607    3257.9798    703.08986 
 1746000    299.80086   -930.88258            0   -925.68977   -443.46904    13.273352    13.323447    13.348865    1.1647616    3259.9587    701.10899 
 1747000    267.52722   -931.52333            0   -926.88953   -1470.8246    13.273352    13.323447    13.348865    1.2122235    3261.9584    699.13255 
 1748000    299.51185   -931.06486            0   -925.87706   -2040.7163    13.273352    13.323447    13.348865     1.227502    3263.9611    697.15673 
 1749000    302.48458   -931.18139            0    -925.9421   -1611.8163    13.273352    13.323447    13.348865     1.313705    3266.0079    695.19028 
 1750000    266.71651   -931.52215            0   -926.90239   -2382.2951    13.273352    13.323447    13.348865    1.2241302    3267.9877    693.20952 
 1751000     290.7712   -930.99848            0   -925.96207   -901.02525    13.273352    13.323447    13.348865    1.2838993    3269.9642    691.22805 
 1752000    300.02536   -930.93427            0   -925.73757    -806.8313    13.273352    13.323447    13.348865    1.4128658    3271.9398     689.2464 
 1753000    252.07112   -931.15824            0   -926.79215   -2455.0183    13.273352    13.323447    13.348865    1.4337163    3273.9123    687.26412 
 1754000    364.75733   -931.93313            0   -925.61522   -1963.8742    13.273352    13.323447    13.348865    1.1955029    3275.8827    685.28138 
 1755000    290.38504   -930.83484            0   -925.80512   -548.89956    13.273352    13.323447    13.348865     1.640998    3277.8553    683.29914 
 1756000    282.65311   -931.47159            0   -926.57579   -1218.4374    13.273352    13.323447    13.348865    1.5065992    3279.8308    681.31751 
 1757000     315.4038   -930.60273            0   -925.13966   -443.83353    13.273352    13.323447    13.348865    1.3792043    3281.8074    679.33611 
 1758000     265.2876   -930.80133            0   -926.20632   -1576.3111    13.273352    13.323447    13.348865     1.190767    3283.7795     677.3538 
 1759000    338.60575   -931.93924            0   -926.07429    -1473.995    13.273352    13.323447    13.348865    1.4541936    3285.7557    675.37233 
 1760000    322.82023   -930.11014            0   -924.51862    -1044.851    13.273352    13.323447    13.348865    1.8178895    3287.7296    673.39041 
 1761000    290.63338   -930.80939            0   -925.77537   -1308.8236    13.273352    13.323447    13.348865    1.4579308    3289.7034    671.40847 
 1762000    278.84244   -931.17821            0   -926.34842   -792.97718    13.273352    13.323447    13.348865    1.1898885     3291.672    669.42547 
 1763000    343.05042   -930.95676            0   -925.01483   -728.47315    13.273352    13.323447    13.348865    1.4057692    3293.6458    667.44355 
 1764000    294.46642   -930.92128            0   -925.82086   -1379.8346    13.273352    13.323447    13.348865    1.7558981    3295.6176    665.46126 
 1765000    318.14456   -931.54362            0   -926.03308   -1606.9159    13.273352    13.323447    13.348865    1.2007438    3297.5945    663.47997 
 1766000    298.23737   -930.70922            0   -925.54349   -536.63566    13.273352    13.323447    13.348865    1.4334809    3299.5667    661.49776 
 1767000    304.94838   -930.77804            0   -925.49607   -405.05222    13.273352    13.323447    13.348865    1.5193305     3301.538     659.5154 
 1768000    278.64316   -931.17494            0   -926.34861   -1173.8386    13.273352    13.323447    13.348865    1.5833622    3303.5124    657.53364 
 1769000    308.02511   -930.85767            0   -925.52241   -1124.0015    13.273352    13.323447    13.348865    1.4588948    3305.4907    655.55268 
 1770000    357.37093   -930.24846            0   -924.05848    292.04566    13.273352    13.323447    13.348865    1.3846158    3307.4732    653.57254 
 1771000    304.02158   -930.88954            0   -925.62363   -866.09443    13.273352    13.323447    13.348865    1.4252746    3309.4555    651.59237 
 1772000    274.22006   -931.12725            0   -926.37752   -2625.1772    13.273352    13.323447    13.348865     1.284039    3311.4335    649.61135 
 1773000    329.04227   -930.90908            0   -925.20979   -880.20309    13.273352    13.323447    13.348865     1.617166    3313.4111    647.63027 
 1774000    294.99951   -930.79136            0   -925.68172   -1096.3379    13.273352    13.323447    13.348865    1.5858567    3315.3973    645.65086 
 1775000    284.89086   -930.91489            0   -925.98033   -529.44272    13.273352    13.323447    13.348865    1.7509177     3317.374    643.66959 
 1776000    319.56329   -931.29084            0   -925.75573   -1721.5744    13.273352    13.323447    13.348865    1.3242049    3319.3598    641.69009 
 1777000    316.38946   -930.70312            0   -925.22298   -245.30524    13.273352    13.323447    13.348865    1.2167537    3321.3379    639.70908 
 1778000    293.37304   -931.54621            0   -926.46474   -1964.3939    13.273352    13.323447    13.348865     1.165081    3323.3171    637.72831 
 1779000    297.13109   -930.94501            0   -925.79845   -2312.3713    13.273352    13.323447    13.348865    1.4874154    3325.2926    635.74682 
 1780000    357.18281   -930.91349            0   -924.72677   -1344.7378    13.273352    13.323447    13.348865    1.6171023     3327.278    633.76724 
 1781000    295.63173   -930.82903            0   -925.70844   -1030.0186    13.273352    13.323447    13.348865    1.0429852    3329.2611    631.78721 
 1782000    292.79031    -931.3954            0   -926.32402   -1024.9205    13.273352    13.323447    13.348865    1.3201861    3331.2387    629.80614 
 1783000    315.62845   -930.64406            0   -925.17711   -935.18084    13.273352    13.323447    13.348865    1.1638652    3333.2211    627.82597 
 1784000    299.44378   -931.12834            0   -925.94172   -1854.0516    13.273352    13.323447    13.348865    1.4741085    3335.1991    625.84495 
 1785000    284.77665    -931.0234            0   -926.09082   -1542.9051    13.273352    13.323447    13.348865    2.0005845    3337.1789    623.86431 
 1786000    312.57772   -930.90781            0   -925.49369   -163.29888    13.273352    13.323447    13.348865    1.3974767    3339.1572    621.88338 
 1787000    278.51619   -930.70285            0   -925.87871   -1809.0469    13.273352    13.323447    13.348865    1.3280028    3341.1351    619.90237 
 1788000    298.51075   -931.67472            0   -926.50426   -2236.0912    13.273352    13.323447    13.348865    1.5626728     3343.114    617.92154 
 1789000    318.25646   -930.82234            0   -925.30986    34.028734    13.273352    13.323447    13.348865    1.4620679    3345.0921    615.94058 
 1790000      313.955   -931.33882            0   -925.90085   -1803.0669    13.273352    13.323447    13.348865    1.2992069    3347.0661    613.95886 
 1791000    265.48831   -931.01404            0   -926.41555   -2608.5385    13.273352    13.323447    13.348865    1.4808103    3349.0398    611.97711 
 1792000    336.43581   -931.11335            0   -925.28599   -1403.3672    13.273352    13.323447    13.348865    1.5422374    3351.0201    609.99656 
 1793000    279.90513   -930.93934            0   -926.09114   -1590.9403    13.273352    13.323447    13.348865    1.5480114    3352.9973    608.01547 
 1794000    283.68506   -931.21639            0   -926.30272   -1310.9267    13.273352    13.323447    13.348865    1.4657737    3354.9747     606.0344 
 1795000    308.66022   -931.19402            0   -925.84776   -797.65745    13.273352    13.323447    13.348865    1.2916372    3356.9501    604.05296 
 1796000    299.80183    -931.1462            0   -925.95337   -2789.6591    13.273352    13.323447    13.348865    1.3032459    3358.9236    602.07121 
 1797000    296.33188   -931.08028            0   -925.94755   -1001.4002    13.273352    13.323447    13.348865    1.4273767     3360.899     600.0898 
 1798000    294.90939   -931.01589            0    -925.9078   -1384.8899    13.273352    13.323447    13.348865    1.3612484    3362.8721    598.10799 
 1799000    302.75445   -931.10425            0   -925.86028   -1014.5651    13.273352    13.323447    13.348865    1.7701309    3364.8481     596.1267 
 1800000    297.01239   -931.35226            0   -926.20775   -413.12012    13.273352    13.323447    13.348865    1.5208929    3366.8225    594.14515 
 1801000    281.65367   -931.12822            0   -926.24974   -1583.9016    13.273352    13.323447    13.348865    2.0117164    3368.7967    592.16356 
 1802000    306.90211    -930.5368            0   -925.22099   -570.79056    13.273352    13.323447    13.348865    1.4205785    3370.7717    590.18212 
 1803000    276.61344   -931.34903            0   -926.55785   -1408.0877    13.273352    13.323447    13.348865     1.300647    3372.7488    588.20105 
 1804000    309.17961     -931.313            0   -925.95775   -1907.0434    13.273352    13.323447    13.348865    1.7153594    3374.7214    586.21921 
 1805000    301.77509   -930.76455            0   -925.53754   -713.36488    13.273352    13.323447    13.348865    1.6104205    3376.6944    584.23744 
 1806000    268.77147   -931.50788            0   -926.85253   -2444.1836    13.273352    13.323447    13.348865    1.2964026    3378.7002    582.26135 
 1807000    305.23803    -931.0642            0   -925.77722   -1198.2793    13.273352    13.323447    13.348865    1.5710578    3380.6775    580.28032 
 1808000    287.01628   -930.80963            0   -925.83826   -960.05099    13.273352    13.323447    13.348865    1.3236264    3382.6942    578.30604 
 1809000    267.81916   -931.79909            0   -927.16023   -2610.3194    13.273352    13.323447    13.348865     1.142515    3384.6847    576.32724 
 1810000    300.91272   -931.41816            0    -926.2061    -1175.916    13.273352    13.323447    13.348865    1.5583422    3386.7765    574.36561 
 1811000    310.13399   -931.08407            0   -925.71228    -503.6392    13.273352    13.323447    13.348865    1.5437296    3388.7563     572.3849 
 1812000     314.8235   -931.60079            0   -926.14778   -2055.8229    13.273352    13.323447    13.348865    1.2033494    3390.7539     570.4072 
 1813000     289.5951   -931.56158            0   -926.54555   -1704.9609    13.273352    13.323447    13.348865    1.1822541    3392.7809     568.4344 
 1814000    330.73813   -931.16873            0   -925.44007   -765.39892    13.273352    13.323447    13.348865    1.5377537    3394.7713    566.45542 
 1815000    289.50658   -931.17956            0   -926.16506   -1903.0085    13.273352    13.323447    13.348865    1.1616345    3396.7665    564.47724 
 1816000     293.3082   -931.42433            0   -926.34398    -1081.139    13.273352    13.323447    13.348865    1.3567412    3398.7418    562.49573 
 1817000    330.22416    -931.0195            0   -925.29973   -1274.6307    13.273352    13.323447    13.348865    1.4747326    3400.7705    560.52303 
 1818000     283.0237   -931.25351            0    -926.3513   -1350.8165    13.273352    13.323447    13.348865    1.2632979    3402.7406    558.54066 
 1819000    323.29644   -931.77562            0   -926.17585   -1748.6299    13.273352    13.323447    13.348865    1.0910554    3404.7845    556.57036 
 1820000    301.81091   -931.01522            0    -925.7876   -1684.4697    13.273352    13.323447    13.348865    2.6951013    3406.7643    554.58954 
 1821000    270.26026   -930.77489            0   -926.09375   -2270.9763    13.273352    13.323447    13.348865    1.7546254    3408.7381    552.60775 
 1822000    289.54401    -931.5228            0   -926.50765    -2338.312    13.273352    13.323447    13.348865    1.3614252    3410.7344     550.6296 
 1823000    328.39009   -931.05793            0   -925.36993   -1667.1773    13.273352    13.323447    13.348865    1.5068957    3412.7141    548.64875 
 1824000    304.63221   -931.38314            0   -926.10665   -1367.9265    13.273352    13.323447    13.348865    1.3598732    3414.7022    546.66925 
 1825000    298.37031   -931.54399            0   -926.37596   -2246.8483    13.273352    13.323447    13.348865    1.2908031    3416.7145    544.69362 
 1826000     317.6274   -931.06097            0   -925.55939   -1907.5286    13.273352    13.323447    13.348865    1.1796706    3418.6989    542.71349 
 1827000    280.17178   -931.06317            0   -926.21036   -2568.7361    13.273352    13.323447    13.348865    1.2044192    3420.6717    540.73154 
 1828000    289.54767    -931.4638            0   -926.44858   -1889.0789    13.273352    13.323447    13.348865    1.1075354    3422.7239     538.7621 
 1829000    329.87716   -931.23804            0   -925.52428   -1715.7262    13.273352    13.323447    13.348865    1.6902779    3424.7091    536.78205 
 1830000    279.54737   -930.88475            0   -926.04275   -1679.6143    13.273352    13.323447    13.348865    1.5884352     3426.682    534.80008 
 1831000     259.8719   -931.53479            0   -927.03359   -2794.3997    13.273352    13.323447    13.348865    1.1649407    3428.6673    532.82005 
 1832000    280.21518   -931.18792            0   -926.33435   -1601.8112    13.273352    13.323447    13.348865     1.486744    3430.6406    530.83816 
 1833000    304.25216    -930.9847            0   -925.71479   -1270.5626    13.273352    13.323447    13.348865    1.2862401    3432.6431    528.86077 
 1834000    293.15523   -931.60301            0   -926.52531   -1852.2462    13.273352    13.323447    13.348865    1.3218536    3434.6156    526.87876 
 1835000    282.01893   -931.20973            0   -926.32492   -1476.3463    13.273352    13.323447    13.348865    1.5538303    3436.6289    524.90298 
 1836000    299.24766   -930.87265            0   -925.68943   -1154.8363    13.273352    13.323447    13.348865    1.5142616    3438.6041    522.92137 
 1837000    269.33072   -931.13208            0   -926.46704   -1205.1918    13.273352    13.323447    13.348865    1.7060446    3440.6126     520.9448 
 1838000     289.0183   -931.46878            0   -926.46273   -1550.5767    13.273352    13.323447    13.348865    1.2216191    3442.6212    518.96822 
 1839000    282.78574   -930.36063            0   -925.46254    565.36068    13.273352    13.323447    13.348865    1.5446562    3444.5959    516.98651 
 1840000    266.65408   -931.17081            0   -926.55213   -2164.1809    13.273352    13.323447    13.348865    1.1427189    3446.5694    515.00463 
 1841000    316.46544   -930.87177            0   -925.39032   -429.13701    13.273352    13.323447    13.348865    1.3261554    3448.5451    513.02308 
 1842000    320.38438   -931.34654            0    -925.7972   -2296.9549    13.273352    13.323447    13.348865    1.5658503    3450.5203    511.04147 
 1843000    279.56154   -931.22367            0   -926.38142   -1470.4747    13.273352    13.323447    13.348865    1.6121728    3452.5026    509.06091 
 1844000    339.41742    -930.8099            0    -924.9309   -141.17713    13.273352    13.323447    13.348865    1.2620638    3454.4795    507.07956 
 1845000    307.38023    -931.1574            0   -925.83331   -187.41082    13.273352    13.323447    13.348865    1.6522846    3456.4574    505.09835 
 1846000    281.00222   -931.06278            0   -926.19558   -605.29338    13.273352    13.323447    13.348865    1.8310077    3458.4321    503.11669 
 1847000    313.61154   -930.31849            0   -924.88647   -28.898931    13.273352    13.323447    13.348865    1.4780651    3460.4106     501.1356 
 1848000    319.39555   -931.46559            0   -925.93338   -579.09471    13.273352    13.323447    13.348865    1.1176386    3462.3925    499.15498 
 1849000    298.17283   -931.24233            0   -926.07772    -1872.055    13.273352    13.323447    13.348865    1.4761381    3464.3671    497.17332 
 1850000    327.67987   -930.54041            0   -924.86472   -271.59864    13.273352    13.323447    13.348865    1.6187867    3466.3423    495.19176 
 1851000     298.2537   -931.20146            0   -926.03545   -1236.6813    13.273352    13.323447    13.348865    1.2972428    3468.3205    493.21063 
 1852000    289.40183    -931.0825            0   -926.06981   -1745.0098    13.273352    13.323447    13.348865    1.1908203    3470.3024    491.23001 
 1853000     321.3878   -930.77757            0   -925.21085   -667.66864    13.273352    13.323447    13.348865    1.2414283    3472.2763    489.24828 
 1854000    284.13231   -931.22368            0   -926.30227   -2260.0545    13.273352    13.323447    13.348865    2.0208365    3474.2518    487.26679 
 1855000    309.36008   -931.49099            0    -926.1326   -1439.1617    13.273352    13.323447    13.348865    1.3784137    3476.2231    485.28471 
 1856000    315.60578   -930.82093            0   -925.35436   -762.71404    13.273352    13.323447    13.348865    1.6728643    3478.1968    483.30297 
 1857000    309.26868   -931.19561            0   -925.83881   -993.41613    13.273352    13.323447    13.348865     1.372203    3480.1725    481.32152 
 1858000    286.99484   -931.32572            0   -926.35472   -1241.0562    13.273352    13.323447    13.348865    1.8726149     3482.146    479.33977 
 1859000    298.99189   -931.14284            0   -925.96404   -784.83056    13.273352    13.323447    13.348865    1.3900626      3484.12    477.35811 
 1860000    320.11822   -931.09483            0   -925.55011    -1291.168    13.273352    13.323447    13.348865    1.2909812    3486.0968    475.37684 
 1861000    265.26833   -931.19676            0   -926.60208   -1224.5507    13.273352    13.323447    13.348865    1.4139274    3488.0755    473.39582 
 1862000    296.58638   -931.03237            0   -925.89524   -850.58721    13.273352    13.323447    13.348865    1.5888117    3490.0515    471.41444 
 1863000    282.92775   -930.74927            0   -925.84872   -1778.1723    13.273352    13.323447    13.348865     1.481667    3492.0272    469.43304 
 1864000    290.50309   -932.16172            0   -927.12995   -2938.5739    13.273352    13.323447    13.348865    1.2565319    3494.0007    467.45134 
 1865000    312.81261   -931.30616            0   -925.88797   -1353.8032    13.273352    13.323447    13.348865    1.2657599    3495.9761    465.46991 
 1866000    346.12696   -931.78762            0   -925.79241   -1618.1382    13.273352    13.323447    13.348865      1.45611    3497.9479      463.488 
 1867000    287.28328   -931.92793            0   -926.95193   -2842.6405    13.273352    13.323447    13.348865     1.138423    3499.9203    461.50619 
 1868000    292.11659   -931.05036            0   -925.99065   -1645.0196    13.273352    13.323447    13.348865    1.2818627    3501.8937    459.52452 
 1869000    287.81339   -930.87493            0   -925.88976   -2364.6521    13.273352    13.323447    13.348865    1.7459642    3503.8628    457.54229 
 1870000    299.25526   -931.50669            0   -926.32333   -1457.6469    13.273352    13.323447    13.348865    1.5055818    3505.8361    455.56062 
 1871000    318.14012   -931.70626            0    -926.1958   -1118.7861    13.273352    13.323447    13.348865     1.130415    3507.8073     453.5787 
 1872000    349.21819   -931.43184            0   -925.38308   -1093.5144    13.273352    13.323447    13.348865    1.4852825    3509.7813    451.59714 
 1873000    282.37678   -931.11683            0   -926.22582   -1085.2647    13.273352    13.323447    13.348865    1.8514222    3511.7554     449.6156 
 1874000    300.55038   -931.16354            0   -925.95775   -657.42555    13.273352    13.323447    13.348865    1.3090292    3513.7325    447.63446 
 1875000    304.06308   -930.59372            0   -925.32709    692.63343    13.273352    13.323447    13.348865    1.6082393    3515.7038    445.65259 
 1876000    274.26204   -930.67715            0    -925.9267   -467.25195    13.273352    13.323447    13.348865    1.2627231     3517.682     443.6716 
 1877000    281.27037   -931.24259            0   -926.37075    -1690.668    13.273352    13.323447    13.348865    1.5073156    3519.6523    441.68962 
 1878000    350.71128   -931.21616            0   -925.14154    -1595.299    13.273352    13.323447    13.348865    1.4178165    3521.6223    439.70763 
 1879000    316.83221   -931.27944            0   -925.79163   -475.82396    13.273352    13.323447    13.348865    1.1902538    3523.5982    437.72636 
 1880000    274.00946   -931.08984            0   -926.34376   -1783.6768    13.273352    13.323447    13.348865     1.249745    3525.5753    435.74526 
 1881000    315.98023   -930.59369            0   -925.12064   -289.87053    13.273352    13.323447    13.348865    1.7317729    3527.5551    433.76449 
 1882000    293.63554   -931.15062            0    -926.0646   -2265.4699    13.273352    13.323447    13.348865     1.579778    3529.5407    431.78444 
 1883000    307.76943   -931.47914            0   -926.14831   -2178.5049    13.273352    13.323447    13.348865     1.341866    3531.5216     429.8038 
 1884000    309.76127   -930.62477            0   -925.25944   -604.36549    13.273352    13.323447    13.348865    1.2492796    3533.5023    427.82315 
 1885000    308.94854   -930.23669            0   -924.88543   -310.25845    13.273352    13.323447    13.348865    1.9255317    3535.4873      425.843 
 1886000     332.8466   -931.77022            0   -926.00504   -1552.7528    13.273352    13.323447    13.348865    1.4443454    3537.4699    423.86258 
 1887000    313.23351    -931.7302            0   -926.30472   -2086.5224    13.273352    13.323447    13.348865    1.4380905    3539.4444    421.88117 
 1888000    331.74722    -930.8113            0   -925.06516   -1797.8415    13.273352    13.323447    13.348865    1.4474071    3541.4237    419.90035 
 1889000    286.53502   -931.07976            0   -926.11672    -2406.724    13.273352    13.323447    13.348865    1.2710257    3543.4052    417.91978 
 1890000    291.03469   -931.02334            0   -925.98237   -1723.0371    13.273352    13.323447    13.348865    1.5088628    3545.3835    415.93884 
 1891000    318.11694   -930.56329            0   -925.05323   -1922.1201    13.273352    13.323447    13.348865    1.2603179    3547.3612    413.95784 
 1892000    279.04443   -930.64417            0   -925.81088   -363.33131    13.273352    13.323447    13.348865    1.6779868    3549.3365    411.97655 
 1893000    293.91865    -931.2734            0   -926.18248   -1653.0387    13.273352    13.323447    13.348865    1.3654634    3551.3104    409.99512 
 1894000    311.97883   -930.44645            0   -925.04271   -714.93821    13.273352    13.323447    13.348865    1.2069079    3553.2882    408.01414 
 1895000    281.81842   -931.13023            0   -926.24889   -1573.3993    13.273352    13.323447    13.348865    1.1856673    3555.2657    406.03313 
 1896000    312.43562   -931.52875            0    -926.1171   -783.24272    13.273352    13.323447    13.348865    1.2012708    3557.2415    404.05193 
 1897000    315.63454   -930.71631            0   -925.24925   -1915.9684    13.273352    13.323447    13.348865     1.335025    3559.2157    402.07056 
 1898000    251.85429   -931.00099            0   -926.63866   -2106.4346    13.273352    13.323447    13.348865     1.541337    3561.1894    400.08913 
 1899000    308.25143   -931.11199            0   -925.77281   -1750.9676    13.273352    13.323447    13.348865    1.2525587    3563.1602     398.1074 
 1900000    293.71342   -930.77454            0   -925.68718   -1371.9419    13.273352    13.323447    13.348865    1.3935204     3565.133    396.12589 
 1901000    309.42098   -931.36536            0   -926.00592   -2142.5362    13.273352    13.323447    13.348865     1.230562    3567.1062    394.14444 
 1902000    281.00063   -930.79759            0   -925.93042    -1572.566    13.273352    13.323447    13.348865    1.1808636    3569.0781    392.16286 
 1903000    323.32113   -930.54174            0   -924.94154   -813.94402    13.273352    13.323447    13.348865    1.6073165    3571.0551    390.18184 
 1904000    295.16819   -931.09518            0   -925.98262   -1569.8296    13.273352    13.323447    13.348865    1.0261404    3573.0304    388.20065 
 1905000    301.77058   -931.36122            0    -926.1343   -1683.5861    13.273352    13.323447    13.348865    1.7394611    3575.0045    386.21933 
 1906000    347.95803    -930.8019            0   -924.77497   -125.76906    13.273352    13.323447    13.348865    1.5461299    3576.9791    384.23806 
 1907000    295.64918    -931.1561            0    -926.0352   -939.14569    13.273352    13.323447    13.348865    1.1029573    3578.9532    382.25676 
 1908000    287.28814   -930.96731            0   -925.99123   -2189.4847    13.273352    13.323447    13.348865     1.462416    3580.9299    380.27574 
 1909000    275.53588   -930.27824            0   -925.50572   -299.01972    13.273352    13.323447    13.348865    1.6140655    3582.9066    378.29473 
 1910000    284.41919    -931.3149            0   -926.38852   -1965.3328    13.273352    13.323447    13.348865    1.6893993    3584.8798    376.31335 
 1911000    315.54969   -931.61529            0    -926.1497   -2163.5805    13.273352    13.323447    13.348865    1.1429375     3586.853    374.33198 
 1912000    324.96038   -931.11339            0    -925.4848    -641.7122    13.273352    13.323447    13.348865    1.3151742    3588.8274    372.35075 
 1913000     310.3405     -931.708            0   -926.33263   -1954.8011    13.273352    13.323447    13.348865    1.3940189    3590.8031    370.36965 
 1914000     296.6313   -931.09434            0   -925.95643   -1644.0599    13.273352    13.323447    13.348865    1.4760563    3592.7877    368.38948 
 1915000    303.22584   -930.63216            0   -925.38003   -1443.0468    13.273352    13.323447    13.348865    1.6149408    3594.7645     366.4085 
 1916000    254.22351   -930.83501            0   -926.43164   -1788.3163    13.273352    13.323447    13.348865    1.3290307    3596.7379    364.42719 
 1917000    303.51715   -931.25162            0   -925.99445   -1079.6366    13.273352    13.323447    13.348865    1.2262371    3598.7139    362.44615 
 1918000    292.61589    -930.8799            0   -925.81154   -1090.2952    13.273352    13.323447    13.348865    2.3238418    3600.6917    360.46528 
 1919000    286.71833   -931.50898            0   -926.54278   -1985.1426    13.273352    13.323447    13.348865    1.1036542    3602.6667    358.48415 
 1920000    297.22244   -931.54185            0   -926.39371   -1037.8458    13.273352    13.323447    13.348865    1.2776101    3604.6354    356.50241 
 1921000    294.12807   -930.77949            0   -925.68494   -1889.0425    13.273352    13.323447    13.348865    1.5118474    3606.6053    354.52079 
 1922000    256.20986   -931.14107            0   -926.70329   -972.18973    13.273352    13.323447    13.348865     1.300088    3608.5757    352.53923 
 1923000    292.15535   -931.36172            0   -926.30134   -1845.4228    13.273352    13.323447    13.348865    1.3012853    3610.5439    350.55747 
 1924000    285.09908   -930.70436            0   -925.76619     -1006.53    13.273352    13.323447    13.348865    1.5635834     3612.517     348.5762 
 1925000    289.07606   -931.29794            0   -926.29089   -1800.1087    13.273352    13.323447    13.348865    1.1784615    3614.4907      346.595 
 1926000    299.67072   -931.20487            0   -926.01432   -1153.2889    13.273352    13.323447    13.348865    1.2416848     3616.462    344.61358 
 1927000     356.5849   -931.48745            0   -925.31109   -1150.4393    13.273352    13.323447    13.348865    1.2309213    3618.4363    342.63245 
 1928000    280.76401     -931.311            0   -926.44793   -1795.8385    13.273352    13.323447    13.348865    1.3507767    3620.4126    340.65152 
 1929000    318.41895   -931.32946            0   -925.81417   -1572.3844    13.273352    13.323447    13.348865    1.4935739    3622.3863    338.67034 
 1930000    303.91643   -930.58493            0   -925.32084    -1599.472    13.273352    13.323447    13.348865    1.3460541    3624.3634    336.68949 
 1931000    288.05386    -931.4242            0   -926.43486    -1779.407    13.273352    13.323447    13.348865    1.4307312    3626.3333    334.70799 
 1932000    277.12236   -930.65572            0   -925.85572    -1446.591    13.273352    13.323447    13.348865    1.3856267    3628.3058    332.72673 
 1933000    300.58192   -930.66949            0   -925.46316   -1473.9332    13.273352    13.323447    13.348865    1.8290954    3630.2808    330.74572 
 1934000    309.29359   -931.40429            0   -926.04706   -1529.0742    13.273352    13.323447    13.348865    1.3953278    3632.2583    328.76493 
 1935000    291.80698   -930.99173            0   -925.93738   -1072.0956    13.273352    13.323447    13.348865    1.5456621    3634.2301    326.78364 
 1936000    331.08573   -930.83081            0   -925.09612   -889.73891    13.273352    13.323447    13.348865    1.3184556    3636.2013    324.80229 
 1937000    285.27118   -931.22398            0   -926.28284   -1551.5964    13.273352    13.323447    13.348865    1.5955362    3638.1698    322.82073 
 1938000    301.97212   -930.91881            0   -925.68839   -1009.4792    13.273352    13.323447    13.348865    1.5882674      3640.14    320.83932 
 1939000     356.5757   -930.89389            0   -924.71769   -378.49212    13.273352    13.323447    13.348865    1.6628173    3642.1126    318.85815 
 1940000    281.41718   -930.72199            0   -925.84761   -1755.9323    13.273352    13.323447    13.348865    1.5404165    3644.0839    316.87686 
 1941000    291.00402   -931.33307            0   -926.29263   -1809.3062    13.273352    13.323447    13.348865    1.4023981    3646.0623     314.8962 
 1942000    310.12671   -930.84222            0   -925.47056   -136.31683    13.273352    13.323447    13.348865    1.7025758    3648.0429    312.91573 
 1943000    301.43111   -930.98859            0   -925.76755   -2240.1803    13.273352    13.323447    13.348865    1.9733642    3650.0209    310.93504 
 1944000    288.87225   -931.32333            0   -926.31982   -2024.7579    13.273352    13.323447    13.348865    1.1850775    3652.0019     308.9546 
 1945000    293.38391   -930.49908            0   -925.41741   -2223.2725    13.273352    13.323447    13.348865    1.2339692    3653.9747    306.97348 
 1946000    270.74368   -931.32571            0   -926.63619   -1402.6962    13.273352    13.323447    13.348865    1.5449137    3655.9484    304.99244 
 1947000    290.54404   -931.12453            0   -926.09205    -1039.015    13.273352    13.323447    13.348865    1.5913765    3657.9224    303.01144 
 1948000    293.83468   -930.79004            0   -925.70057   -462.14459    13.273352    13.323447    13.348865    1.5218712    3659.8954    301.03036 
 1949000    284.44434   -931.14127            0   -926.21445   -2500.9937    13.273352    13.323447    13.348865     1.525072    3661.8677    299.04923 
 1950000    274.46335   -931.91835            0   -927.16441   -2349.6713    13.273352    13.323447    13.348865    1.5148565    3663.8382    297.06797 
 1951000    307.90512   -931.20271            0   -925.86952   -698.87359    13.273352    13.323447    13.348865    1.2505852     3665.812    295.08698 
 1952000    307.60603   -931.02975            0   -925.70175    411.96179    13.273352    13.323447    13.348865    1.7718641    3667.7917    293.10647 
 1953000    270.92403   -931.53643            0   -926.84379   -2025.6617    13.273352    13.323447    13.348865    1.0663013    3669.7692    291.12578 
 1954000    300.19878    -931.0263            0    -925.8266   -1059.3034    13.273352    13.323447    13.348865    1.2556126    3671.7467     289.1451 
 1955000    291.72976   -930.94573            0   -925.89272    -1649.846    13.273352    13.323447    13.348865    1.6898139    3673.7215    287.16422 
 1956000     278.7075   -931.53781            0   -926.71035   -2059.1634    13.273352    13.323447    13.348865    1.1925415    3675.6988    285.18352 
 1957000    291.64225   -931.05894            0   -926.00745   -960.68445    13.273352    13.323447    13.348865    1.8295065    3677.6669    283.20214 
 1958000    309.95904   -931.03848            0   -925.66972   -1196.4373    13.273352    13.323447    13.348865    1.3042275    3679.6361    281.22084 
 1959000    276.64919   -931.54398            0   -926.75218   -2008.6695    13.273352    13.323447    13.348865    1.1948811    3681.6033    279.23941 
 1960000    277.74969   -930.66909            0   -925.85823    -1443.842    13.273352    13.323447    13.348865    1.8698767      3683.57    277.25796 
 1961000    332.62248   -931.32351            0    -925.5622   -1761.7563    13.273352    13.323447    13.348865    1.4493964    3685.5412    275.27685 
 1962000    282.11084   -931.48197            0   -926.59557   -1054.8067    13.273352    13.323447    13.348865    1.4764904    3687.5132    273.29582 
 1963000    305.75454   -930.49563            0    -925.1997   -1148.7763    13.273352    13.323447    13.348865    1.2055581    3689.4852     271.3148 
 1964000    289.94438   -930.87163            0   -925.84954   -861.98917    13.273352    13.323447    13.348865    1.2711297    3691.4546     269.3336 
 1965000    275.55173   -931.13403            0   -926.36123   -1089.3254    13.273352    13.323447    13.348865    1.3866218     3693.424    267.35241 
 1966000    335.96753   -930.81736            0   -924.99811   -343.89876    13.273352    13.323447    13.348865    1.3831283    3695.3964    265.37144 
 1967000    288.81866   -930.85456            0   -925.85197   -549.27957    13.273352    13.323447    13.348865    1.5278063    3697.3748    263.39092 
 1968000    288.53559   -931.05925            0   -926.06157   -854.65322    13.273352    13.323447    13.348865    2.1840445    3699.3467    261.40994 
 1969000    326.33045   -930.61673            0   -924.96441   -1728.3026    13.273352    13.323447    13.348865     1.342718     3701.316    259.42878 
 1970000    297.17989   -930.94267            0   -925.79526   -352.91331    13.273352    13.323447    13.348865    1.7704257    3703.2965    257.44842 
 1971000    289.82968   -931.14001            0   -926.11991   -1390.7174    13.273352    13.323447    13.348865    1.8637513    3705.2711    255.46765 
 1972000    339.71771    -930.8151            0    -924.9309    703.49571    13.273352    13.323447    13.348865    1.4994917    3707.2482    253.48706 
 1973000    288.30619   -930.79316            0   -925.79945   -264.22588    13.273352    13.323447    13.348865    1.0973275    3709.2243     251.5064 
 1974000    304.30414   -931.36305            0   -926.09225   -2281.2324    13.273352    13.323447    13.348865    1.6343528    3711.2019    249.52585 
 1975000    310.29199   -930.97667            0   -925.60215   -474.67262    13.273352    13.323447    13.348865    1.4611921    3713.1781    247.54521 
 1976000    300.91058   -930.58304            0   -925.37101   -1532.4538    13.273352    13.323447    13.348865    1.5966013     3715.149    245.56422 
 1977000    289.67153   -931.48258            0   -926.46522   -2201.9572    13.273352    13.323447    13.348865    1.3463267    3717.1216    243.58336 
 1978000    318.29843   -930.98197            0   -925.46877   -2118.7875    13.273352    13.323447    13.348865    1.3506075    3719.0956    241.60259 
 1979000     318.7025   -931.51856            0   -925.99835   -2077.4193    13.273352    13.323447    13.348865    1.5611471    3721.0709    239.62192 
 1980000    281.92692   -931.32637            0   -926.44316   -2034.7725    13.273352    13.323447    13.348865    1.6155047     3723.047     237.6413 
 1981000    301.91191   -930.67893            0   -925.44956    -1557.805    13.273352    13.323447    13.348865    1.2579972    3725.0245    235.66078 
 1982000    276.87436   -931.52475            0   -926.72905   -2297.8966    13.273352    13.323447    13.348865    1.1574446    3726.9996     233.6801 
 1983000    289.36413   -931.38464            0   -926.37261   -2733.8881    13.273352    13.323447    13.348865    1.1736286    3728.9693     231.6991 
 1984000    301.71655   -930.90571            0   -925.67972    -2033.726    13.273352    13.323447    13.348865    1.3307248    3730.9396    229.71815 
 1985000    259.20197   -931.19457            0   -926.70497   -1559.6079    13.273352    13.323447    13.348865    1.3541636    3732.9116    227.73731 
 1986000    293.91077   -931.41064            0   -926.31985   -2879.3422    13.273352    13.323447    13.348865    1.3332829    3734.8815    225.75636 
 1987000    313.86812   -931.19319            0   -925.75672   -1524.1168    13.273352    13.323447    13.348865     1.258198    3736.8563    223.77571 
 1988000    307.67615   -931.44475            0   -926.11553   -1662.4148    13.273352    13.323447    13.348865    1.3108263    3738.8321    221.79512 
 1989000    294.72331   -931.70004            0   -926.59518   -1765.7471    13.273352    13.323447    13.348865    1.7516417    3740.8083    219.81457 
 1990000    298.05645   -930.63157            0   -925.46898   -272.86435    13.273352    13.323447    13.348865    1.5487663    3742.7834    217.83396 
 1991000    279.47444    -931.0375            0   -926.19677   -657.72281    13.273352    13.323447    13.348865    1.3683296    3744.7527    215.85301 
 1992000    250.53686   -931.81435            0   -927.47483   -1420.7635    13.273352    13.323447    13.348865    1.3806779    3746.7227    213.87212 
 1993000    292.93313   -931.31996            0   -926.24611   -1589.8693    13.273352    13.323447    13.348865    1.0401458    3748.7478    211.89436 
 1994000    285.00458    -930.4587            0   -925.52217   -1059.8615    13.273352    13.323447    13.348865    1.6607937    3750.7378    209.91458 
 1995000    279.15931   -931.24988            0    -926.4146    -1889.296    13.273352    13.323447    13.348865    1.9359807    3752.7128    207.93396 
 1996000    296.93016   -931.31902            0   -926.17594   -1287.7389    13.273352    13.323447    13.348865    1.6214671    3754.7108     205.9546 
 1997000    306.13887   -930.84532            0   -925.54273   -813.55686    13.273352    13.323447    13.348865    1.4515145    3756.6958    203.97452 
 1998000    287.24101   -931.39017            0    -926.4149   -159.14701    13.273352    13.323447    13.348865    1.1883095    3758.7242    201.99677 
 1999000    344.46519   -931.51833            0   -925.55189   -1230.8885    13.273352    13.323447    13.348865    1.3330011    3760.7138     200.0169 
 2000000    307.77792   -930.96045            0   -925.62947   -812.28769    13.273352    13.323447    13.348865     1.485987    3762.7222    198.03801 
 2001000    283.95304    -931.1616            0   -926.24329   -1762.6436    13.273352    13.323447    13.348865       1.2658    3764.7211     196.0586 
 2002000    313.05812   -931.27875            0   -925.85631    -1893.551    13.273352    13.323447    13.348865    1.6004032    3766.7514    194.08078 
 2003000    327.58686   -930.68401            0   -925.00992   -1430.0677    13.273352    13.323447    13.348865    1.7335843    3768.7957    192.10361 
 2004000    301.40115   -931.08451            0   -925.86399   -1233.9017    13.273352    13.323447    13.348865    1.2467204    3770.7869    190.12371 
 2005000    283.19269   -931.11637            0   -926.21123   -1692.9143    13.273352    13.323447    13.348865    1.1657229    3772.7644    188.14311 
 2006000    317.84507   -930.36684            0   -924.86149    123.47673    13.273352    13.323447    13.348865    1.2455233    3774.7935    186.16505 
 2007000    311.22552   -931.05266            0   -925.66196   -749.53707    13.273352    13.323447    13.348865    1.6699457     3776.788    184.18526 
 2008000     306.8021   -931.37835            0   -926.06427   -1517.2097    13.273352    13.323447    13.348865    1.7765795     3778.804    182.20648 
 2009000    285.94371   -931.15123            0   -926.19844    -2371.419    13.273352    13.323447    13.348865    1.4645035    3780.7891     180.2262 
 2010000    321.58058    -930.8482            0   -925.27815   -1311.5827    13.273352    13.323447    13.348865    1.3631391    3782.8367    178.24885 
 2011000    295.88231   -931.59602            0   -926.47109   -1471.0025    13.273352    13.323447    13.348865    1.3808651    3784.8221    176.26853 
 2012000    291.50056   -931.19255            0   -926.14351   -2148.9839    13.273352    13.323447    13.348865    1.3407373    3786.8265    174.28908 
 2013000    328.00379    -931.2769            0   -925.59559   -941.76689    13.273352    13.323447    13.348865    1.4188272    3788.8054    172.30845 
 2014000     282.2931   -932.05282            0   -927.16326    -2632.627    13.273352    13.323447    13.348865    1.2276707    3790.8278    170.32978 
 2015000    275.11104   -930.94537            0   -926.18021   -1814.9417    13.273352    13.323447    13.348865    1.2969464    3792.8005    168.34885 
 2016000    293.79376   -930.62677            0   -925.53801   -1826.7209    13.273352    13.323447    13.348865    1.9446106    3794.8014    166.36916 
 2017000    283.19979   -931.56341            0   -926.65815   -1349.7826    13.273352    13.323447    13.348865     1.358314    3796.8223    164.39032 
 2018000     303.4977   -931.34912            0   -926.09227      -521.38    13.273352    13.323447    13.348865    1.4472836    3798.7984    162.40952 
 2019000    298.02525   -931.01285            0    -925.8508   -1072.7195    13.273352    13.323447    13.348865    1.2716368    3800.8389    160.43145 
 2020000    304.75211   -931.54155            0   -926.26298   -2236.8807    13.273352    13.323447    13.348865    1.4719707    3802.8142    158.45059 
 2021000    294.14996   -931.46713            0    -926.3722   -2428.8968    13.273352    13.323447    13.348865    1.9009674    3804.7928    156.46987 
 2022000    325.83183    -930.9584            0   -925.31471   -307.09073    13.273352    13.323447    13.348865    1.2739266    3806.7672    154.48899 
 2023000     271.1229   -931.16965            0   -926.47357   -1898.6256    13.273352    13.323447    13.348865    1.2808197    3808.8077    152.51076 
 2024000    313.26298   -931.72913            0   -926.30315   -2457.3714    13.273352    13.323447    13.348865    1.0929251    3810.7818    150.52984 
 2025000    305.19787   -930.75715            0   -925.47086    -2469.027    13.273352    13.323447    13.348865    1.4665161    3812.8433    148.55234 
 2026000     272.4778   -931.09825            0    -926.3787   -2059.2081    13.273352    13.323447    13.348865    1.8734382    3814.8229     146.5716 
 2027000    282.82289   -931.16512            0   -926.26638    -2189.123    13.273352    13.323447    13.348865    1.5187788    3816.7965    144.59063 
 2028000    308.62976    -930.9803            0   -925.63456   -904.71401    13.273352    13.323447    13.348865    1.7648726    3818.8713    142.61345 
 2029000    292.11478   -931.16938            0    -926.1097   -2463.9261    13.273352    13.323447    13.348865    1.6913533    3820.8639    140.63315 
 2030000    282.33324   -931.83321            0   -926.94296   -2585.8004    13.273352    13.323447    13.348865    1.5538831    3822.8457    138.65243 
 2031000    317.18183   -931.45182            0   -925.95796   -1226.0137    13.273352    13.323447    13.348865    1.2361976    3824.8161    136.67132 
 2032000     326.7303   -931.32377            0   -925.66452   -1397.9579    13.273352    13.323447    13.348865    1.6351916    3826.8927    134.69395 
 2033000    260.20943   -931.39811            0   -926.89106   -2020.6114    13.273352    13.323447    13.348865    1.2511676    3828.8813    132.71342 
 2034000    305.64386   -931.31382            0   -926.01981   -2562.8449    13.273352    13.323447    13.348865    1.5643525    3830.8532    130.73232 
 2035000    318.68643   -931.37273            0    -925.8528   -1319.2441    13.273352    13.323447    13.348865    1.1293929    3832.8875    128.75333 
 2036000    293.44817   -931.22442            0   -926.14164   -816.53412    13.273352    13.323447    13.348865     1.372852    3834.8715    126.77261 
 2037000    285.05185   -931.32569            0   -926.38834   -1817.1739    13.273352    13.323447    13.348865    1.3034496    3836.8852    124.79286 
 2038000    321.41505   -930.82361            0   -925.25643   -937.29183    13.273352    13.323447    13.348865    1.2398465    3838.8562    122.81171 
 2039000     292.7086   -931.56206            0   -926.49209   -1533.1959    13.273352    13.323447    13.348865    1.7286277    3840.8432    120.83106 
 2040000    281.79387   -931.06368            0   -926.18277   -750.76536    13.273352    13.323447    13.348865    1.4085144    3842.8335    118.85052 
 2041000    330.90187   -931.22248            0   -925.49098    -2832.629    13.273352    13.323447    13.348865    1.6909723    3844.8601    116.87107 
 2042000     269.5679   -931.51141            0   -926.84227   -1613.7209    13.273352    13.323447    13.348865    1.2504954    3846.8465    114.89037 
 2043000    305.87185   -931.20897            0   -925.91101   -551.24832    13.273352    13.323447    13.348865    1.2749896    3848.8245    112.90942 
 2044000    303.80828   -931.07637            0   -925.81415   -602.75262    13.273352    13.323447    13.348865    1.4203594    3850.8624    110.93019 
 2045000    259.54106   -931.57073            0   -927.07525   -2128.2931    13.273352    13.323447    13.348865    1.5246193    3852.8787     108.9503 
 2046000    276.69672   -931.25503            0   -926.46241   -1646.1452    13.273352    13.323447    13.348865    1.6360742    3854.8671    106.96959 
 2047000    315.19801   -931.18883            0   -925.72933   -743.11044    13.273352    13.323447    13.348865    1.2843815    3856.8452     104.9886 
 2048000    289.68714   -930.90883            0    -925.8912   -1197.9827    13.273352    13.323447    13.348865    1.5419275    3858.9335    103.01054 
 2049000    280.27772   -931.55415            0   -926.69949   -2647.5553    13.273352    13.323447    13.348865    1.8157986    3860.9591    101.03074 
 2050000    277.08982   -930.39246            0   -925.59302   -125.26155    13.273352    13.323447    13.348865    1.7519752    3863.0091    99.051516 
 2051000     305.6409   -931.27193            0   -925.97797   -1765.1771    13.273352    13.323447    13.348865    1.2550998    3864.9988    97.070702 
 2052000    286.49108   -931.95718            0   -926.99491   -1897.3831    13.273352    13.323447    13.348865    1.4720012    3866.9748    95.089545 
 2053000    305.61553   -931.17762            0   -925.88409   -940.70651    13.273352    13.323447    13.348865    1.8144514    3869.0254    93.110187 
 2054000     299.9569   -930.92826            0   -925.73275   -1498.4462    13.273352    13.323447    13.348865     1.587453    3871.0141    91.129298 
 2055000    272.10803   -931.50145            0   -926.78831    -1639.925    13.273352    13.323447    13.348865    1.2516425    3873.0628    89.149784 
 2056000    305.46368   -930.78128            0   -925.49039   -987.79012    13.273352    13.323447    13.348865    1.5117757    3875.0622    87.169088 
 2057000    313.36302   -931.34009            0   -925.91237   -1246.8181    13.273352    13.323447    13.348865    1.4478507    3877.0523     85.18817 
 2058000    286.98906   -931.47788            0   -926.50699   -1055.2427    13.273352    13.323447    13.348865    1.4062439    3879.1195    83.208896 
 2059000    327.40022   -930.77758            0   -925.10673   -92.511781    13.273352    13.323447    13.348865    1.7714045    3881.0888    81.227484 
 2060000    292.96662   -931.27872            0   -926.20428   -2173.0601    13.273352    13.323447    13.348865    1.3796283    3883.1114    79.247172 
 2061000    302.36618    -931.2436            0   -926.00636   -1560.5008    13.273352    13.323447    13.348865     1.234044    3885.0879    77.265898 
 2062000    366.11345   -930.84853            0   -924.50713   -452.90824    13.273352    13.323447    13.348865    1.4715359    3887.0783      75.2849 
 2063000     302.3052   -931.06543            0   -925.82924   -1950.8778    13.273352    13.323447    13.348865    1.4877092    3889.0769    73.304048 
 2064000    282.45826   -931.25072            0    -926.3583   -1445.9433    13.273352    13.323447    13.348865    1.2601276    3891.0698    71.323072 
 2065000    337.74865   -930.89459            0    -925.0445   -240.57252    13.273352    13.323447    13.348865    1.7129237    3893.0968    69.342691 
 2066000    321.58902   -931.50679            0   -925.93659   -1327.0657    13.273352    13.323447    13.348865    1.4399065    3895.0898    67.361675 
 2067000     295.5595   -931.17447            0   -926.05512   -568.40458    13.273352    13.323447    13.348865    1.3159591    3897.0862    65.380704 
 2068000    300.31133   -930.29102            0   -925.08937   -177.63047    13.273352    13.323447    13.348865     1.940581    3899.0828     63.39972 
 2069000    332.26556   -931.30665            0   -925.55153   -975.35436    13.273352    13.323447    13.348865     1.220076    3901.1206    61.419369 
 2070000    269.51128   -930.77737            0    -926.1092   -1040.3531    13.273352    13.323447    13.348865    1.3849729     3903.102    59.438101 
 2071000    300.46816   -930.93686            0    -925.7325   -1226.5613    13.273352    13.323447    13.348865    1.2677223    3905.0801    57.456785 
 2072000    346.13417   -931.22383            0   -925.22849   -1551.9966    13.273352    13.323447    13.348865    1.5413542    3907.0597    55.475493 
 2073000     273.7775   -931.22034            0   -926.47828   -963.01145    13.273352    13.323447    13.348865    1.5284525    3909.0374    53.494176 
 2074000    309.68149   -931.02662            0   -925.66267   -870.04888    13.273352    13.323447    13.348865     1.393667    3911.0107    51.512805 
 2075000     329.0458   -930.90139            0   -925.20204    -1743.805    13.273352    13.323447    13.348865    1.3820447    3912.9895    49.531513 
 2076000    282.45042   -931.40031            0   -926.50803   -2135.1731    13.273352    13.323447    13.348865    1.2447656    3914.9704    47.550247 
 2077000    312.47863   -931.21703            0   -925.80463    -1228.953    13.273352    13.323447    13.348865     1.441265    3916.9462    45.568924 
 2078000    324.06628   -931.16516            0   -925.55205   -1035.7865    13.273352    13.323447    13.348865    2.0286888    3918.9264    43.587655 
 2079000    293.98613    -931.1555            0   -926.06341   -981.54538    13.273352    13.323447    13.348865    1.1041708    3920.9068    41.606389 
 2080000    280.20753   -930.72673            0   -925.87329   -424.17298    13.273352    13.323447    13.348865    1.4924017    3922.8824    39.625074 
 2081000    348.44877   -931.36262            0   -925.32718   -898.35778    13.273352    13.323447    13.348865    1.2888321    3924.8653    37.643837 
 2082000    293.05263   -931.47852            0    -926.4026   -1750.5986    13.273352    13.323447    13.348865    1.1985475    3926.8406    35.662528 
 2083000     336.5248   -931.84588            0   -926.01698   -2061.3389    13.273352    13.323447    13.348865    1.1932091    3929.0033    33.682832 
 2084000    305.68597   -930.67371            0   -925.37896   -1689.5039    13.273352    13.323447    13.348865    1.3843435    3930.9829    31.701475 
 2085000    289.21388   -931.27668            0   -926.26725   -1656.6134    13.273352    13.323447    13.348865    1.2420272    3932.9863      29.7203 
 2086000    307.71648   -931.32715            0   -925.99723   -497.31327    13.273352    13.323447    13.348865    1.2684559     3934.965    27.738927 
 2087000    326.39436   -931.02453            0    -925.3711   -1158.4717    13.273352    13.323447    13.348865    1.5072617    3936.9445    25.757563 
 2088000     270.9431   -930.98502            0   -926.29205   -360.54574    13.273352    13.323447    13.348865    1.2704098    3938.9228    23.776194 
 2089000    328.36359   -931.64922            0   -925.96168   -926.74277    13.273352    13.323447    13.348865    1.3909252    3940.8992    21.794817 
 2090000    349.05589   -930.53421            0   -924.48826   -790.00329    13.273352    13.323447    13.348865    1.7557983    3942.8769    19.813452 
 2091000    295.58293    -930.8339            0   -925.71415   -1167.5535    13.273352    13.323447    13.348865    1.4212152    3944.8512    17.832075 
 2092000    318.53169   -931.81496            0   -926.29772   -2012.9669    13.273352    13.323447    13.348865    1.7038625    3946.8375    15.850753 
 2093000    333.56871   -931.31884            0   -925.54114   -2104.5386    13.273352    13.323447    13.348865     1.029581    3948.8186    13.869408 
 2094000    295.06016   -930.67341            0   -925.56272   -1320.9427    13.273352    13.323447    13.348865    1.6085013    3950.8106    11.888096 
 2095000    280.71186   -931.07639            0   -926.21421   -1881.1076    13.273352    13.323447    13.348865    1.3882416    3952.8082    9.9067874 
 2096000     332.6933   -931.40702            0   -925.64448   -2181.9065    13.273352    13.323447    13.348865    1.2930297    3954.7876    7.9254261 
 2097000    324.33716    -930.4936            0    -924.8758   -23.087078    13.273352    13.323447    13.348865    1.5384361    3956.7829    5.9440905 
 2098000    301.84078   -931.51666            0   -926.28852   -2377.9395    13.273352    13.323447    13.348865    1.2800937     3958.755    3.9627177 
 2099000     306.0168     -930.989            0   -925.68852   -709.48924    13.273352    13.323447    13.348865    1.6312048     3960.746    1.9813637 
 2100000    337.12686   -930.93543            0    -925.0961   -392.48226    13.273352    13.323447    13.348865    1.6920043    3962.7273            0 
Loop time of 3962.73 on 1 procs for 2000000 steps with 135 atoms

Performance: 43.606 ns/day, 0.550 hours/ns, 504.703 timesteps/s
99.9% CPU use with 1 MPI tasks x no OpenMP threads

MPI task timing breakdown:
Section |  min time  |  avg time  |  max time  |%varavg| %total
---------------------------------------------------------------
Pair    | 2764       | 2764       | 2764       |   0.0 | 69.75
Kspace  | 1151.1     | 1151.1     | 1151.1     |   0.0 | 29.05
Neigh   | 1.3585     | 1.3585     | 1.3585     |   0.0 |  0.03
Comm    | 32.877     | 32.877     | 32.877     |   0.0 |  0.83
Output  | 0.58162    | 0.58162    | 0.58162    |   0.0 |  0.01
Modify  | 6.1038     | 6.1038     | 6.1038     |   0.0 |  0.15
Other   |            | 6.768      |            |       |  0.17

Nlocal:        135.000 ave         135 max         135 min
Histogram: 1 0 0 0 0 0 0 0 0 0
Nghost:        4024.00 ave        4024 max        4024 min
Histogram: 1 0 0 0 0 0 0 0 0 0
Neighs:        44288.0 ave       44288 max       44288 min
Histogram: 1 0 0 0 0 0 0 0 0 0

Total # of neighbors = 44288
Ave neighs/atom = 328.05926
Neighbor list builds = 1204
Dangerous builds = 0

# Final Commands
variable final_energy equal etotal
print "final_energy: ${final_energy}"
final_energy: -925.096101843664
print "END_OF_COMP"
END_OF_COMP
Total wall time: 1:09:54
