LAMMPS (10 Feb 2021)
# Input written to comply with LAMMPS 2017-08-11 00:00:00

# Atomic Configuration
units           metal
boundary        p p p
box tilt large
atom_style      charge
read_data       na3ocl.lmp
Reading data file ...
  orthogonal box = (0.0000000 0.0000000 0.0000000) to (13.503000 13.503000 13.503000)
  1 by 1 by 1 MPI processor grid
  reading atoms ...
  135 atoms
  read_data CPU = 0.001 seconds

# Potential Setup
pair_style  buck/coul/long 12.0
pair_coeff * * 0.0 1.0 0.0
pair_coeff 1 1    1788.190000  0.159000   0.000000 # Na Na
pair_coeff 1 3    1170.410000  0.315000   0.000000 # Na Cl
pair_coeff 1 2     588.380000  0.338000   0.000000 # Na O
pair_coeff 3 3    1227.200000  0.321000  14.530000 # Cl Cl
pair_coeff 2 3    8286.910000  0.259000  62.200000 # Cl O
pair_coeff 2 2   22764.300000  0.149000  13.190000 # O  O
kspace_style pppm 1e-05

# General Setup
timestep        0.001

# Thermodynamic Information Output
thermo_style custom step temp epair emol etotal press lx ly lz fmax cpu cpuremain
thermo          1000

# Intial Atom Velocity
velocity all create 300 80800 dist gaussian rot yes

# Stage 0: npt_equilibriation
restart         0
fix             int all npt aniso 1.0 1.0 0.1 temp 800 800 0.5
run             50000
PPPM initialization ...
  using 12-bit tables for long-range coulomb (../kspace.cpp:339)
  G vector (1/distance) = 0.27806613
  grid = 15 15 15
  stencil order = 5
  estimated absolute RMS force accuracy = 6.1564455e-05
  estimated relative force accuracy = 4.2754148e-06
  using double precision KISS FFT
  3d grid and FFT values/proc = 10648 3375
Neighbor list info ...
  update every 1 steps, delay 10 steps, check yes
  max neighbors/atom: 2000, page size: 100000
  master list distance cutoff = 14
  ghost atom cutoff = 14
  binsize = 7, bins = 2 2 2
  1 neighbor lists, perpetual/occasional/extra = 1 0 0
  (1) pair buck/coul/long, perpetual
      attributes: half, newton on
      pair build: half/bin/atomonly/newton
      stencil: half/bin/3d/newton
      bin: standard
Per MPI rank memory allocation (min/avg/max) = 4.411 | 4.411 | 4.411 Mbytes
Step Temp E_pair E_mol TotEng Press Lx Ly Lz Fmax CPU CPULeft 
       0          300    -935.0408            0   -929.84455   -22334.388       13.503       13.503       13.503 2.2762301e-07            0            0 
    1000    274.48457   -931.99667            0   -927.24236    7076.8145    13.125124    13.215275    13.283177    1.5055464     2.690069    131.81338 
    2000    497.35778   -927.88274            0   -919.26807   -1823.7721    13.349747    13.408927    13.358229    2.1644546    5.3691771    128.86027 
    3000    740.56741   -922.25917            0   -909.43191    727.96403    13.486186    13.252464    13.477208    2.2375895     8.042325    125.99644 
    4000    956.93283    -920.9202            0    -904.3453     2292.366    13.205281    13.569935     13.55188    3.2212067    10.699675    123.04627 
    5000    779.64377   -923.67673            0   -910.17263    4363.6464    13.342848    13.573885    13.239788    2.4160586    13.339232    120.05309 
    6000    772.81332   -923.51182            0   -910.12603   -2318.2414     13.30746    13.592626    13.513076    2.1504178    15.985471    117.22679 
    7000    893.56284   -920.53073            0   -905.05346    856.74892    13.231382    13.539503    13.580168    2.5258271    18.625761     114.4154 
    8000    780.81633   -922.67144            0   -909.14703    3915.6091    13.527998    13.343538    13.329096    2.5870755    21.272542    111.68085 
    9000    714.12292   -922.19661            0   -909.82739    1849.6369    13.405982    13.439324    13.372239    3.1516272    23.938439    109.05289 
   10000    807.23764   -920.46475            0    -906.4827    4092.4747    13.656554    13.397255    13.220352    2.4999355    26.589924     106.3597 
   11000    723.59267    -921.0084            0   -908.47515   -6498.5843    13.573755    13.352905    13.691593     2.142336    29.226904    103.62266 
   12000    734.83634   -922.89821            0   -910.17021   -1995.0557    13.531848    13.554885    13.374543    1.7602788    31.867301    100.91312 
   13000    791.48308   -920.65672            0   -906.94756   -5777.7907    13.572974    13.574061    13.430766    2.5184612    34.533075    98.286447 
   14000    762.82353   -922.31423            0   -909.10147   -3777.0192    13.373053     13.56589    13.503469     2.624629     37.18177    95.610268 
   15000    811.21767    -923.1583            0   -909.10731   -3391.9127    13.369088    13.439453    13.677132    2.5051341    39.819297    92.911695 
   16000    780.72691   -921.41931            0   -907.89645   -4170.2952    13.352957    13.506441     13.61974    2.6071651    42.467077    90.242541 
   17000    796.33785    -924.3571            0   -910.56385    488.05433    13.611399    13.268333    13.397279    1.9585529    45.109884    87.566247 
   18000    777.71101   -923.19409            0   -909.72347    -3081.045    13.517876    13.505619    13.387428    2.1366656     47.76535    84.916178 
   19000    759.46358   -921.32453            0   -908.16997   -2759.0682     13.41799    13.594362    13.552628    2.3365807    50.402807     82.23616 
   20000    815.19055   -922.55607            0   -908.43627    2190.6402    13.495997     13.27953    13.440679    2.3584914    53.043724    79.565586 
   21000    717.32906   -922.67589            0   -910.25114   -2927.7204    13.649662    13.484118    13.269983    2.3425008    55.685654    76.899236 
   22000    815.31598   -920.86489            0   -906.74292   -1329.6816    13.669494    13.188176    13.584569    2.5591482    58.337442    74.247655 
   23000    855.16775   -922.74255            0   -907.93031    -5188.405    13.434871    13.728138    13.390279    3.0221237    60.974526    71.578793 
   24000    713.88386   -921.16309            0   -908.79801   -374.66177    13.328576    13.455015    13.612514    1.9424268    63.618482    68.920023 
   25000    792.33849   -921.10722            0   -907.38324    5159.1378    13.452807    13.245305    13.534051    2.7145993     66.26387     66.26387 
   26000    860.09905   -922.64034            0   -907.74268    3895.7487     13.52199    13.199549    13.495212    2.1080353    68.895871     63.59619 
   27000    764.69057   -923.03062            0   -909.78552    2049.5255     13.51686    13.335856    13.404814    2.2719982     71.53886    60.940511 
   28000    824.85285   -921.47967            0   -907.19251     1336.132    13.351189    13.430385    13.522887    2.2053877    74.181564    58.285515 
   29000    801.29673   -921.81244            0   -907.93329    4776.6324    13.490999    13.308444    13.428913    1.7168007    76.829468    55.635133 
   30000    795.24879   -922.84518            0   -909.07079   -1561.9111    13.426509    13.608532    13.330994    2.7533659    79.466255    52.977504 
   31000    765.24273   -921.98249            0   -908.72783   -6517.8718    13.549484     13.54165    13.519507    2.4372071    82.102273    50.320749 
   32000     774.0292   -922.13934            0   -908.73249    1354.3352    13.533606    13.351142    13.415126    2.3447826    84.752206    47.673116 
   33000    740.13548   -920.82998            0   -908.01019   -2964.9204    13.330353    13.599875    13.655317    1.9994572    87.394522     45.02142 
   34000    931.98938   -923.48075            0    -907.3379    5504.4289    13.381895    13.305202    13.501706    2.9538327    90.031009    42.367534 
   35000    752.30595   -922.64675            0   -909.61616   -324.30911    13.287902    13.629327    13.400571    2.4966221    92.669973    39.715703 
   36000    770.37691   -921.96128            0   -908.61769   -4384.7228    13.538944    13.389682    13.611168    2.6133391    95.309973     37.06499 
   37000    928.05294   -923.18203            0   -907.10735   -8116.6233    13.572616    13.433841    13.622117    2.2611771    97.946461    34.413622 
   38000    802.27288   -923.17836            0   -909.28231   -4247.1133    13.476783    13.528881    13.449752     2.482674    100.58365    31.763259 
   39000    722.49888   -923.55172            0   -911.03741   -275.47734    13.204647    13.597255    13.485037    2.5033264    103.22908    29.115896 
   40000    781.25896    -922.3021            0   -908.77002   -4895.8278    13.646469    13.419885    13.467448     1.684395    105.87184    26.467961 
   41000    743.65985   -920.49539            0   -907.61456   -7569.2963    13.692146    13.403132    13.588139    3.5056003    108.49999    23.817071 
   42000    699.44698   -923.24014            0   -911.12512   -1901.2345    13.585444    13.552731    13.266508    2.4064261    111.13858    21.169254 
   43000    891.26787   -923.74399            0   -908.30647    1554.8951    13.305004     13.59791    13.366239    2.1769988    113.77624    18.521713 
   44000    839.71858   -923.03825            0    -908.4936   -2685.5283    13.445833    13.446067     13.49889    2.6784267    116.41706    15.875054 
   45000    810.47334   -921.89674            0   -907.85864    391.64782    13.541005    13.498785    13.397849    2.3843724    119.06411    13.229346 
   46000    872.42619   -922.10758            0    -906.9964    8694.2553    13.306767    13.243509    13.541495    2.2649234    121.71035    10.583508 
   47000    795.85897   -924.18796            0     -910.403    -6301.022    13.686463    13.271769    13.495949    1.8111882    124.36106    7.9379403 
   48000    821.99137   -922.83222            0   -908.59462   -919.98285    13.584019    13.310608    13.390194    2.1850253    127.00887    5.2920365 
   49000    802.23925   -922.10229            0   -908.20681   -1289.8453    13.407252    13.344263    13.594361    2.7044982    129.65826    2.6460869 
   50000    864.72971   -921.07674            0   -906.09888   -5318.9542    13.482302    13.395907    13.717595    1.9200397    132.30586            0 
Loop time of 132.306 on 1 procs for 50000 steps with 135 atoms

Performance: 32.652 ns/day, 0.735 hours/ns, 377.912 timesteps/s
99.9% CPU use with 1 MPI tasks x no OpenMP threads

MPI task timing breakdown:
Section |  min time  |  avg time  |  max time  |%varavg| %total
---------------------------------------------------------------
Pair    | 68.754     | 68.754     | 68.754     |   0.0 | 51.97
Kspace  | 29.409     | 29.409     | 29.409     |   0.0 | 22.23
Neigh   | 1.081      | 1.081      | 1.081      |   0.0 |  0.82
Comm    | 0.8944     | 0.8944     | 0.8944     |   0.0 |  0.68
Output  | 0.0011351  | 0.0011351  | 0.0011351  |   0.0 |  0.00
Modify  | 31.968     | 31.968     | 31.968     |   0.0 | 24.16
Other   |            | 0.1972     |            |       |  0.15

Nlocal:        135.000 ave         135 max         135 min
Histogram: 1 0 0 0 0 0 0 0 0 0
Nghost:        3991.00 ave        3991 max        3991 min
Histogram: 1 0 0 0 0 0 0 0 0 0
Neighs:        43886.0 ave       43886 max       43886 min
Histogram: 1 0 0 0 0 0 0 0 0 0

Total # of neighbors = 43886
Ave neighs/atom = 325.08148
Neighbor list builds = 966
Dangerous builds = 0

# Stage 1: nvt_equilibriation
unfix int
restart         0
fix             int all nvt temp 800 800 0.5
run             50000
PPPM initialization ...
  using 12-bit tables for long-range coulomb (../kspace.cpp:339)
  G vector (1/distance) = 0.27795341
  grid = 15 15 15
  stencil order = 5
  estimated absolute RMS force accuracy = 6.1984694e-05
  estimated relative force accuracy = 4.3045988e-06
  using double precision KISS FFT
  3d grid and FFT values/proc = 10648 3375
Per MPI rank memory allocation (min/avg/max) = 4.411 | 4.411 | 4.411 Mbytes
Step Temp E_pair E_mol TotEng Press Lx Ly Lz Fmax CPU CPULeft 
   50000    864.72971   -921.07671            0   -906.09885   -5318.7871    13.482302    13.395907    13.717595    1.9200394            0            0 
   51000    799.48885   -923.01259            0   -909.16475   -5511.3904    13.482302    13.395907    13.717595    1.9674982    1.9724641     96.65074 
   52000    686.31708    -920.4684            0    -908.5808   -4971.0464    13.482302    13.395907    13.717595    2.4225431    3.9403112    94.567469 
   53000    817.78612   -921.09908            0   -906.93433   -4138.3747    13.482302    13.395907    13.717595    2.4366803    5.9102101    92.593292 
   54000    755.98405   -921.84958            0   -908.75529   -4621.8127    13.482302    13.395907    13.717595    2.4477254     7.880121    90.621391 
   55000     786.9121   -922.34244            0   -908.71245   -4739.4593    13.482302    13.395907    13.717595    2.4997737     9.861696    88.755275 
   56000     809.6422   -920.53475            0   -906.51105   -5546.0073    13.482302    13.395907    13.717595     3.024708    11.849103    86.893431 
   57000      734.419   -920.91554            0   -908.19477   -6652.1362    13.482302    13.395907    13.717595    2.4722763    13.827697    84.941573 
   58000    803.80891   -921.97621            0   -908.05355   -5006.0382    13.482302    13.395907    13.717595    2.4862704    15.804541    82.973841 
   59000    842.51786   -922.27889            0   -907.68576   -5245.9072    13.482302    13.395907    13.717595    1.8034996    17.787674    81.032738 
   60000     855.0309   -921.69943            0   -906.88956    -5456.818    13.482302    13.395907    13.717595    2.4063852    19.762679     79.05072 
   61000    787.53005   -921.88492            0   -908.24423   -4667.6075    13.482302    13.395907    13.717595    2.2614936    21.740177    77.078813 
   62000    812.56906   -923.68534            0   -909.61095   -5544.3296    13.482302    13.395907    13.717595    2.7606087    23.714532    75.096021 
   63000    881.93565   -921.45763            0   -906.18175   -3498.5525    13.482302    13.395907    13.717595     1.981549    25.690712    73.119722 
   64000    784.29474   -922.29564            0   -908.71098    -7570.149    13.482302    13.395907    13.717595     2.339232    27.671711    71.155831 
   65000      767.994   -921.24482            0    -907.9425   -5121.1067    13.482302    13.395907    13.717595    1.6951156    29.711905    69.327781 
   66000    824.36195   -919.93823            0   -905.65957    -3170.029    13.482302    13.395907    13.717595    2.5903712    31.694704    67.351246 
   67000    773.54463   -922.12217            0   -908.72371   -7021.2359    13.482302    13.395907    13.717595    2.4495183    33.672065     65.36342 
   68000    829.35832   -921.13243            0   -906.76724   -5909.8248    13.482302    13.395907    13.717595    2.4992755     35.65102    63.379593 
   69000    766.73116   -919.57091            0   -906.29047   -3048.6104    13.482302    13.395907    13.717595    2.9694451    37.644415    61.419837 
   70000    825.55519   -922.17426            0   -907.87494    -2700.246    13.482302    13.395907    13.717595    2.1428085    39.620645    59.430969 
   71000    797.78861   -922.06568            0    -908.2473   -6654.0976    13.482302    13.395907    13.717595    2.3215657    41.601826    57.450142 
   72000    828.29413   -920.41659            0   -906.06982   -5308.1568    13.482302    13.395907    13.717595    2.6331421    43.580484    55.466072 
   73000    800.51937   -922.37233            0   -908.50665   -8112.2051    13.482302    13.395907    13.717595    2.1575505        45.56    53.483478 
   74000    783.75008    -922.2251            0   -908.64988   -4658.9797    13.482302    13.395907    13.717595    2.1122233     47.53669    51.498081 
   75000    822.60964   -921.16975            0   -906.92144   -6294.3818    13.482302    13.395907    13.717595    3.2007863    49.526094    49.526095 
   76000    765.73089   -920.84933            0   -907.58622   -8142.7073    13.482302    13.395907    13.717595    2.2252111    51.506954    47.544882 
   77000    759.12465    -922.3645            0   -909.21581   -5028.2285    13.482302    13.395907    13.717595    1.9267811    53.487086    45.563073 
   78000      707.726   -922.26713            0    -910.0087   -6400.7223    13.482302    13.395907    13.717595    2.1821138     55.46897    43.582763 
   79000    855.87003    -921.8603            0    -907.0359   -4714.3192    13.482302    13.395907    13.717595    2.0950546    57.448052    41.600314 
   80000    791.52337   -922.59036            0   -908.88049   -7142.3281    13.482302    13.395907    13.717595    1.9407033    59.426453    39.617636 
   81000     749.6387    -922.6687            0   -909.68431   -5910.2292    13.482302    13.395907    13.717595    2.3963791    61.404374     37.63494 
   82000    777.31065   -919.94298            0    -906.4793   -7894.9985    13.482302    13.395907    13.717595    2.2936802    63.385002    35.654064 
   83000    770.86175   -922.38423            0   -909.03224   -7685.5312    13.482302    13.395907    13.717595    1.8404775    65.366854    33.673834 
   84000    801.61201   -921.47109            0   -907.58648   -4729.4086    13.482302    13.395907    13.717595    2.0640414    67.355655    31.696779 
   85000    891.11469   -922.07699            0   -906.64212   -4941.5131    13.482302    13.395907    13.717595    2.7869367    69.335672    29.715288 
   86000     810.2905   -922.97211            0   -908.93718   -8604.1816    13.482302    13.395907    13.717595    2.7585319     71.31633    27.734129 
   87000    793.07612   -920.84917            0   -907.11241   -6349.3359    13.482302    13.395907    13.717595    2.3275602     73.30837    25.756995 
   88000    787.95682   -917.47715            0   -903.82906    -2321.924    13.482302    13.395907    13.717595     2.273231    75.288601    23.775348 
   89000    800.23269   -921.58202            0    -907.7213   -5622.6053    13.482302    13.395907    13.717595    1.9796849    77.274592    21.795398 
   90000    749.71303   -921.97862            0   -908.99294   -5058.9846    13.482302    13.395907    13.717595    2.7674785    79.253722    19.813431 
   91000    885.37356   -920.86331            0   -905.52788    -5615.149    13.482302    13.395907    13.717595     2.296751    81.242659    17.833755 
   92000    851.50679   -922.56289            0   -907.81407   -7954.7852    13.482302    13.395907    13.717595     2.320136    83.234385    15.854169 
   93000     736.6107   -920.76737            0   -908.00864   -6663.9375    13.482302    13.395907    13.717595    2.0889758    85.219387    13.872924 
   94000     855.7464   -921.48568            0   -906.66341    -3796.337    13.482302    13.395907    13.717595    2.2177667    87.214954    11.892948 
   95000    844.36736   -921.40505            0   -906.77989   -5753.6198    13.482302    13.395907    13.717595    2.5029761     89.19668    9.9107423 
   96000    754.09754   -922.06679            0   -909.00518   -6657.0016    13.482302    13.395907    13.717595    2.4463639    91.187371    7.9293367 
   97000    834.01168   -920.42497            0   -905.97917    -3534.215    13.482302    13.395907    13.717595     3.221476    93.165166    5.9467127 
   98000    827.26786   -921.91375            0   -907.58476   -8139.3792    13.482302    13.395907    13.717595    2.0595081    95.150785    3.9646161 
   99000    753.42851   -921.97047            0   -908.92044   -5188.7032    13.482302    13.395907    13.717595     4.523622    97.132655    1.9822991 
  100000    900.11263   -921.88699            0   -906.29626   -5704.0778    13.482302    13.395907    13.717595    2.6275108     99.10882            0 
Loop time of 99.1088 on 1 procs for 50000 steps with 135 atoms

Performance: 43.588 ns/day, 0.551 hours/ns, 504.496 timesteps/s
99.9% CPU use with 1 MPI tasks x no OpenMP threads

MPI task timing breakdown:
Section |  min time  |  avg time  |  max time  |%varavg| %total
---------------------------------------------------------------
Pair    | 67.651     | 67.651     | 67.651     |   0.0 | 68.26
Kspace  | 29.477     | 29.477     | 29.477     |   0.0 | 29.74
Neigh   | 0.80636    | 0.80636    | 0.80636    |   0.0 |  0.81
Comm    | 0.84593    | 0.84593    | 0.84593    |   0.0 |  0.85
Output  | 0.0010695  | 0.0010695  | 0.0010695  |   0.0 |  0.00
Modify  | 0.15437    | 0.15437    | 0.15437    |   0.0 |  0.16
Other   |            | 0.1729     |            |       |  0.17

Nlocal:        135.000 ave         135 max         135 min
Histogram: 1 0 0 0 0 0 0 0 0 0
Nghost:        4015.00 ave        4015 max        4015 min
Histogram: 1 0 0 0 0 0 0 0 0 0
Neighs:        42326.0 ave       42326 max       42326 min
Histogram: 1 0 0 0 0 0 0 0 0 0

Total # of neighbors = 42326
Ave neighs/atom = 313.52593
Neighbor list builds = 722
Dangerous builds = 0

# Stage 2: main_nvt_simulation
unfix int
dump     atom_info all custom 1000 main_nvt_simulation-trajectory.lammpstrj element x y z q id type vx vy vz
dump_modify     atom_info append yes
dump_modify     atom_info sort id
dump_modify     atom_info element Na O Cl
restart         0
fix             int all nvt temp 800 800 0.5
run             2000000
PPPM initialization ...
  using 12-bit tables for long-range coulomb (../kspace.cpp:339)
  G vector (1/distance) = 0.27795341
  grid = 15 15 15
  stencil order = 5
  estimated absolute RMS force accuracy = 6.1984694e-05
  estimated relative force accuracy = 4.3045988e-06
  using double precision KISS FFT
  3d grid and FFT values/proc = 10648 3375
Per MPI rank memory allocation (min/avg/max) = 5.683 | 5.683 | 5.683 Mbytes
Step Temp E_pair E_mol TotEng Press Lx Ly Lz Fmax CPU CPULeft 
  100000    900.11263   -921.88699            0   -906.29626   -5704.0778    13.482302    13.395907    13.717595    2.6275108            0            0 
  101000    782.81209   -922.85098            0     -909.292   -5120.1524    13.482302    13.395907    13.717595    2.0626807    1.9433861    3884.8288 
  102000    764.75365   -922.21407            0   -908.96788   -6670.9727    13.482302    13.395907    13.717595    2.1312966    3.8866172    3882.7306 
  103000    806.41372   -921.18131            0   -907.21353   -4345.2444    13.482302    13.395907    13.717595    1.8532901    5.8324201    3882.4483 
  104000    800.15988   -920.25959            0   -906.40014   -4857.5088    13.482302    13.395907    13.717595    3.0772144    7.7705832     3877.521 
  105000    800.71922   -923.04543            0   -909.17629   -7090.8711    13.482302    13.395907    13.717595    1.7327821    9.7298272     3882.201 
  106000    876.15214   -922.16924            0   -906.99354   -5734.1083    13.482302    13.395907    13.717595    1.9053775    11.672432    3879.1386 
  107000    856.71384   -921.45728            0   -906.61826   -4653.2541    13.482302    13.395907    13.717595    2.6761058    13.622998    3878.6625 
  108000    821.63975    -922.3191            0   -908.08759   -5279.5623    13.482302    13.395907    13.717595    2.2737229    15.583693    3880.3398 
  109000    785.29482   -921.14315            0   -907.54116   -4159.8882    13.482302    13.395907    13.717595    2.2910206    17.544648    3881.2663 
  110000    972.97422   -921.09763            0   -904.24488   -4375.3421    13.482302    13.395907    13.717595    1.9435912    19.594951    3899.3955 
  111000    750.80049   -920.91532            0   -907.91081   -3756.1195    13.482302    13.395907    13.717595    2.2662362    21.562982    3898.9794 
  112000    830.08748   -922.70804            0   -908.33021   -7553.0926    13.482302    13.395907    13.717595    1.7680056    23.570604    3904.8636 
  113000    869.52521   -920.26192            0     -905.201   -4234.9831    13.482302    13.395907    13.717595    2.4346558    25.603854    3913.4508 
  114000     810.8657   -922.54623            0   -908.50134   -8474.6244    13.482302    13.395907    13.717595    2.0059267    27.599269    3915.1536 
  115000     752.7301   -920.90081            0   -907.86288   -7696.9123    13.482302    13.395907    13.717595    2.0214355    29.632321    3921.3438 
  116000    870.19768   -920.44222            0   -905.36965   -2127.9336    13.482302    13.395907    13.717595    2.3222542     31.67772    3928.0374 
  117000    752.45538   -921.87377            0    -908.8406   -4483.0629    13.482302    13.395907    13.717595    2.2353467    33.674792    3928.0656 
  118000    736.52522     -920.809            0   -908.05175   -6909.7931    13.482302    13.395907    13.717595     2.300267    35.641847    3924.5635 
  119000    920.07928   -922.23085            0   -906.29429   -9081.4153    13.482302    13.395907    13.717595    1.8665478    37.594781    3919.7506 
  120000    779.43882   -922.62995            0    -909.1294   -9050.3734    13.482302    13.395907    13.717595    1.6321747    39.554404    3915.8861 
  121000    757.13146   -921.28807            0   -908.17391   -6280.9477    13.482302    13.395907    13.717595    2.5436206    41.511462    3911.9611 
  122000    848.84306   -921.07288            0   -906.37018   -4197.6823    13.482302    13.395907    13.717595     2.496798    43.463779     3907.789 
  123000    672.50493   -921.19991            0   -909.55155   -3976.6412    13.482302    13.395907    13.717595    2.2350898    45.421761    3904.2967 
  124000     717.5276   -920.76799            0   -908.33979   -5392.0005    13.482302    13.395907    13.717595    2.0731224    47.390505    3901.8183 
  125000      739.468   -920.46539            0   -907.65717   -5330.5007    13.482302    13.395907    13.717595    2.5989672    49.342749    3898.0773 
  126000    772.65772     -920.939            0    -907.5559   -3803.7748    13.482302    13.395907    13.717595     2.569019    51.295457     3894.509 
  127000     840.6216    -923.5932            0   -909.03292   -7180.5257    13.482302    13.395907    13.717595    2.4124523    53.237834    3890.3054 
  128000    804.81244   -920.90604            0     -906.966   -5362.1453    13.482302    13.395907    13.717595    3.1068619    55.195095    3887.3118 
  129000    824.07996   -920.91235            0   -906.63858   -5224.7942    13.482302    13.395907    13.717595    2.5000188    57.148364    3884.1181 
  130000    741.90151   -921.19613            0   -908.34575   -7967.1656    13.482302    13.395907    13.717595    2.1498044    59.092694    3880.4203 
  131000    837.65498   -921.74361            0    -907.2347   -4843.4139    13.482302    13.395907    13.717595    1.9889694    61.032911    3876.5743 
  132000    810.37695   -921.31624            0   -907.27982   -5095.4484    13.482302    13.395907    13.717595    1.9515354    62.975873    3873.0162 
  133000     750.6553   -922.66152            0   -909.65953   -7864.6912    13.482302    13.395907    13.717595    2.1597617    64.927101    3870.0487 
  134000    858.52437    -921.0925            0   -906.22212   -5153.9176    13.482302    13.395907    13.717595    2.3502878    66.870723    3866.7013 
  135000    789.56201   -921.42221            0   -907.74631   -6615.8213    13.482302    13.395907    13.717595    1.6734173    68.812915    3863.3537 
  136000    696.90025   -921.07619            0   -909.00528   -5706.0896    13.482302    13.395907    13.717595    3.2970509    70.753985     3860.023 
  137000    791.53572   -919.34383            0   -905.63375   -2984.0071    13.482302    13.395907    13.717595     2.441065    72.699483    3857.0024 
  138000    795.48814   -922.45009            0   -908.67155   -6533.3627    13.482302    13.395907    13.717595    2.9810006     74.64691    3854.1379 
  139000     714.5367   -920.60027            0   -908.22388   -3633.1059    13.482302    13.395907    13.717595    2.2904866     76.59624    3851.4161 
  140000    913.46413   -919.71157            0   -903.88959   -2058.3105    13.482302    13.395907    13.717595     2.371308    78.538273    3848.3754 
  141000    923.49789   -921.50628            0    -905.5105   -4877.7892    13.482302    13.395907    13.717595    2.5218284    80.486067    3845.6636 
  142000    770.57369    -921.9655            0    -908.6185   -6766.0499    13.482302    13.395907    13.717595    2.3819402    82.437782    3843.1709 
  143000    785.96258   -921.64391            0   -908.03036   -5146.9751    13.482302    13.395907    13.717595    2.3071294    84.383842    3840.4461 
  144000    915.69989   -921.78873            0   -905.92803   -5124.1027    13.482302    13.395907    13.717595     2.747718    86.338418    3838.1352 
  145000    826.41143   -922.29549            0   -907.98133    -6492.057    13.482302    13.395907    13.717595    2.3590894    88.283293    3835.4187 
  146000    817.36412   -921.84434            0   -907.68689   -6895.1462    13.482302    13.395907    13.717595    1.8690092    90.243368    3833.3813 
  147000    921.62307     -920.982            0   -905.01869   -3920.0303    13.482302    13.395907    13.717595    2.8963421    92.192979    3830.9126 
  148000    726.43181    -921.0044            0   -908.42198   -7614.3236    13.482302    13.395907    13.717595    2.2571575    94.146957     3828.643 
  149000    736.24275   -920.72036            0     -907.968   -3124.5926    13.482302    13.395907    13.717595    2.1659651    96.089939    3825.9484 
  150000    1001.3532    -921.7961            0   -904.45181   -4305.5904    13.482302    13.395907    13.717595    1.9066103    98.033198    3823.2948 
  151000    764.51009   -921.77272            0   -908.53075   -6674.5064    13.482302    13.395907    13.717595    2.0274841    99.978909    3820.7627 
  152000    805.62373   -921.23761            0   -907.28351   -3317.1545    13.482302    13.395907    13.717595    2.0873768    101.93205    3818.5313 
  153000    932.92272   -922.50316            0   -906.34413   -4969.5522    13.482302    13.395907    13.717595    2.3706645    103.88753    3816.3965 
  154000    744.14371    -922.4214            0   -909.53219    -6822.142    13.482302    13.395907    13.717595    2.1357292    105.82809    3813.7306 
  155000     823.7432   -921.10081            0   -906.83287   -4518.8382    13.482302    13.395907    13.717595    2.8500023    107.76775    3811.0596 
  156000    837.60625   -921.66667            0   -907.15861   -6862.4845    13.482302    13.395907    13.717595    2.3849784    109.71191    3808.5708 
  157000    853.07188   -922.95675            0   -908.18082   -5284.3029    13.482302    13.395907    13.717595    1.8296222     111.6583    3806.1769 
  158000    762.39103   -923.12007            0    -909.9148   -8301.4564    13.482302    13.395907    13.717595    2.0533404    113.60364    3803.7631 
  159000     855.7645   -921.89316            0   -907.07058   -6822.2901    13.482302    13.395907    13.717595     2.037597     115.5498    3801.3927 
  160000    861.73942   -922.26338            0   -907.33731   -5679.6328    13.482302    13.395907    13.717595    2.4521151    117.49454    3798.9902 
  161000     749.4415   -923.25312            0   -910.27215   -10173.889    13.482302    13.395907    13.717595    1.8915277    119.43624    3796.5061 
  162000    772.89063    -921.4064            0   -908.01927   -4553.4586    13.482302    13.395907    13.717595    2.1322909    121.37787    3794.0374 
  163000    830.17242   -921.31029            0   -906.93099   -2423.3645    13.482302    13.395907    13.717595    2.8548539    123.32264    3791.6818 
  164000    770.76446   -923.77667            0   -910.42637   -10147.613    13.482302    13.395907    13.717595    1.7145012    125.27377    3789.5314 
  165000    811.58684   -921.69382            0   -907.63644   -4974.2145    13.482302    13.395907    13.717595    2.6233547    127.21464    3787.0818 
  166000    772.96955   -920.68703            0   -907.29854   -4351.8678    13.482302    13.395907    13.717595    3.2438424    129.20669    3786.1478 
  167000    682.80842   -922.45478            0   -910.62795   -6839.8548    13.482302    13.395907    13.717595    1.8848439    131.13926    3783.4656 
  168000    766.66663   -921.42197            0   -908.14264   -7366.6717    13.482302    13.395907    13.717595    2.0821551    133.09162    3781.3679 
  169000    758.42506   -920.58316            0   -907.44659   -4450.8245    13.482302    13.395907    13.717595    2.4862914    135.02806    3778.8288 
  170000    677.87556   -920.14837            0   -908.40698   -7081.2913    13.482302    13.395907    13.717595    3.3740849    136.97525    3776.6034 
  171000    645.42802   -920.52625            0   -909.34688   -3685.1212    13.482302    13.395907    13.717595    2.6736314    138.93418    3774.7047 
  172000    894.35131   -921.65114            0    -906.1602   -5114.0863    13.482302    13.395907    13.717595    2.7391909    140.91974    3773.5174 
  173000    715.30777   -920.66443            0   -908.27468   -7149.0757    13.482302    13.395907    13.717595    2.2780822    142.85482    3770.9759 
  174000    761.43986   -921.61396            0   -908.42517    -7900.445    13.482302    13.395907    13.717595    2.4543431    144.78785    3768.3972 
  175000    849.71808   -922.52144            0   -907.80359   -7756.6528    13.482302    13.395907    13.717595    1.8177114    146.74178    3766.3724 
  176000    788.65164   -920.63789            0   -906.97777   -6655.9311    13.482302    13.395907    13.717595    2.7252535    148.67704    3763.8767 
  177000     821.4589    -922.8632            0   -908.63483   -6873.8063    13.482302    13.395907    13.717595    2.8805276    150.61191    3761.3858 
  178000    741.18911   -921.79307            0   -908.95504   -3197.3605    13.482302    13.395907    13.717595    2.0302059    152.54825    3758.9454 
  179000    811.52375   -920.38958            0   -906.33329   -5384.4891    13.482302    13.395907    13.717595    2.7084908    154.54285    3757.9343 
  180000    748.36115   -921.83344            0   -908.87118   -6007.2748    13.482302    13.395907    13.717595    2.0608788    156.47741    3755.4579 
  181000    806.63908   -921.56537            0   -907.59369   -7610.2578    13.482302    13.395907    13.717595    2.5253436    158.40968    3752.9404 
  182000    918.16408   -918.72843            0   -902.82503   -2386.6652    13.482302    13.395907    13.717595    1.8133616    160.35454    3750.7318 
  183000    801.18668   -921.41543            0   -907.53819   -6096.1578    13.482302    13.395907    13.717595    1.8054417    162.29013    3748.3153 
  184000    785.51984   -922.47553            0   -908.86965   -5302.1164    13.482302    13.395907    13.717595    1.9007885    164.28043    3747.1585 
  185000    975.28642   -922.52447            0   -905.63167   -4494.0025    13.482302    13.395907    13.717595    2.5968473    166.21406    3744.7049 
  186000    824.73051   -922.50859            0   -908.22355   -5973.5095    13.482302    13.395907    13.717595    2.4125689     168.1488    3742.2885 
  187000    774.45993   -921.38068            0   -907.96636   -7897.5844    13.482302    13.395907    13.717595    2.3752477    170.08377     3739.888 
  188000    875.44114   -921.26381            0   -906.10041   -7138.1527    13.482302    13.395907    13.717595    2.6421172    172.08718     3738.985 
  189000     813.0574   -922.34353            0   -908.26067    -5030.422    13.482302    13.395907    13.717595    1.9042656    174.02192     3736.583 
  190000     784.3324   -922.43796            0   -908.85265   -8092.0386    13.482302    13.395907    13.717595    2.0947478    175.95216    3734.0959 
  191000    850.56527   -920.56171            0   -905.82919   -3184.8049    13.482302    13.395907    13.717595    2.1841181    177.88713    3731.7201 
  192000    806.87923   -921.43814            0    -907.4623    -3697.313    13.482302    13.395907    13.717595    2.5429152    179.81905    3729.2907 
  193000    738.98172   -921.82016            0   -909.02036    -9247.081    13.482302    13.395907    13.717595    2.5164197    181.75506     3726.956 
  194000    813.39001   -919.76909            0   -905.68047   -3611.2751    13.482302    13.395907    13.717595    2.3569001    183.68849    3724.5773 
  195000     776.5448   -921.66113            0   -908.21071    -3623.192    13.482302    13.395907    13.717595    2.3657299    185.62293    3722.2282 
  196000    793.72921   -922.09847            0    -908.3504    -4784.074    13.482302    13.395907    13.717595    2.0056477    187.55547    3719.8502 
  197000      885.458   -922.30938            0   -906.97248   -7432.7249    13.482302    13.395907    13.717595    1.8880923    189.54623    3718.6236 
  198000    940.31397   -920.70841            0   -904.42137   -4514.1029    13.482302    13.395907    13.717595    2.4432639    191.48436    3716.3598 
  199000    795.54885   -921.91737            0   -908.13778   -10050.477    13.482302    13.395907    13.717595    2.6275214    193.41918     3714.039 
  200000    789.46171   -921.50693            0   -907.83278   -6559.6626    13.482302    13.395907    13.717595    2.3553712    195.39638    3712.5312 
  201000    825.55192   -919.42426            0   -905.12499   -3500.4422    13.482302    13.395907    13.717595    2.3162562    197.33078    3710.2095 
  202000    820.35527   -922.62388            0   -908.41462   -8384.5178    13.482302    13.395907    13.717595    1.8226251    199.26149    3707.8266 
  203000    863.95942   -922.30375            0   -907.33924    -7168.186    13.482302    13.395907    13.717595     1.798681    201.19573    3705.5174 
  204000    786.81479   -918.85189            0   -905.22358   -544.93263    13.482302    13.395907    13.717595    2.6456333    203.21059    3704.6853 
  205000    803.94609   -922.84603            0     -908.921   -7088.2516    13.482302    13.395907    13.717595    2.2056369     205.1442    3702.3644 
  206000    813.46365    -921.3906            0   -907.30071   -5120.7036    13.482302    13.395907    13.717595     3.452966     207.0789    3700.0702 
  207000    832.36163   -920.95596            0   -906.53874   -5351.7495    13.482302    13.395907    13.717595    1.9570031    209.02018    3697.8991 
  208000    814.56845   -923.44839            0   -909.33937   -7034.5647    13.482302    13.395907    13.717595    2.1723014    211.00171    3696.4374 
  209000    876.09444   -921.69421            0    -906.5195   -4176.7046    13.482302    13.395907    13.717595    1.9617987    212.93404    3694.1125 
  210000    725.29624   -922.00499            0   -909.44224   -8161.0799    13.482302    13.395907    13.717595    1.8053874    214.86807    3691.8241 
  211000    812.00738   -923.11053            0   -909.04587   -7650.3502    13.482302    13.395907    13.717595    1.9364663    216.79993    3689.5051 
  212000    770.24389   -920.65624            0   -907.31496   -2772.8746    13.482302    13.395907    13.717595    2.6611598    218.73485    3687.2446 
  213000    781.88165   -922.70812            0   -909.16526   -6350.4109    13.482302    13.395907    13.717595    2.9305225    220.66951    3684.9856 
  214000    795.34896   -923.18334            0   -909.40721   -7966.6025    13.482302    13.395907    13.717595    2.3135176    222.60263    3682.7067 
  215000    890.00482   -922.68751            0   -907.27186    -5388.754    13.482302    13.395907    13.717595    2.6687152    224.53691    3680.4529 
  216000    742.42711   -921.66565            0   -908.80617   -7813.0181    13.482302    13.395907    13.717595    2.8856247    226.47268    3678.2287 
  217000    696.68856   -921.80573            0   -909.73849   -5572.0251    13.482302    13.395907    13.717595    2.2193116    228.44366    3676.5762 
  218000    819.28289   -921.60319            0    -907.4125   -4162.7174    13.482302    13.395907    13.717595    2.3323911    230.37659    3674.3113 
  219000    709.49978   -920.63252            0   -908.34338   -4128.2101    13.482302    13.395907    13.717595    2.3349997    232.31037    3672.0656 
  220000    743.77714    -922.8311            0   -909.94824   -9935.6189    13.482302    13.395907    13.717595      2.13828    234.24344    3669.8138 
  221000    794.66619   -920.20679            0   -906.44248   -4309.4582    13.482302    13.395907    13.717595    2.4275616    236.17743    3667.5817 
  222000    777.32271   -921.82139            0   -908.35749   -8260.9681    13.482302    13.395907    13.717595    2.3035263    238.21429     3666.938 
  223000    759.73339   -921.93374            0   -908.77451   -5766.1114    13.482302    13.395907    13.717595    1.9260718    240.14968    3664.7231 
  224000    839.88372   -920.68395            0   -906.13645    -4867.782    13.482302    13.395907    13.717595    1.7557491    242.08645    3662.5337 
  225000     837.4537   -923.46398            0   -908.95856   -8409.3751    13.482302    13.395907    13.717595    1.8394589    244.02326     3660.349 
  226000    856.41248   -920.93811            0   -906.10431    -3971.254    13.482302    13.395907    13.717595     2.645877    245.95567    3658.1026 
  227000    825.94953   -920.92505            0   -906.61889   -2391.0696    13.482302    13.395907    13.717595    3.3632924    247.91714    3656.2898 
  228000    722.39356     -920.708            0   -908.19552   -5684.2358    13.482302    13.395907    13.717595    2.3020692    249.85485    3654.1271 
  229000    763.94206   -920.68589            0   -907.45376   -5233.1014    13.482302    13.395907    13.717595    2.8753919    251.78808    3651.9031 
  230000    884.32533   -921.05039            0   -905.73312   -5283.4092    13.482302    13.395907    13.717595    1.9633662    253.72123    3649.6824 
  231000     766.7933   -921.90219            0   -908.62067   -4798.4771    13.482302    13.395907    13.717595    2.5050789    255.66598    3647.6315 
  232000    875.56428    -922.5024            0   -907.33687   -8298.0135    13.482302    13.395907    13.717595    1.8643384    257.59898    3645.4158 
  233000    901.83012   -919.31605            0   -903.69558   -2286.7704    13.482302    13.395907    13.717595    2.4652983    259.60318    3644.2041 
  234000    780.70937   -921.56595            0   -908.04339   -6362.0299    13.482302    13.395907    13.717595    2.7328641    261.54236     3642.075 
  235000    746.11562   -921.06471            0   -908.14135   -4503.3268    13.482302    13.395907    13.717595     2.291564    263.47639    3639.8776 
  236000    955.99653   -922.46676            0   -905.90807   -5349.7673    13.482302    13.395907    13.717595     2.040132    265.41186    3637.7038 
  237000    690.35084   -920.44521            0   -908.48774   -3973.2894    13.482302    13.395907    13.717595     2.579668    267.34512    3635.5034 
  238000     823.8573    -922.6634            0   -908.39348    -7553.548    13.482302    13.395907    13.717595    1.7541847    269.32609    3633.9506 
  239000    858.26029    -920.9717            0   -906.10589   -7253.9501    13.482302    13.395907    13.717595    2.7097239    271.26764    3631.8639 
  240000    915.21025   -923.21708            0   -907.36485   -6558.2703    13.482302    13.395907    13.717595     1.840709    273.20439    3629.7155 
  241000    805.04104   -922.99728            0   -909.05327   -7399.3871    13.482302    13.395907    13.717595      2.40515    275.14866    3627.6692 
  242000    740.57001   -921.82214            0   -908.99483   -5279.4439    13.482302    13.395907    13.717595    1.8521348    277.12114    3625.9935 
  243000    864.76303   -921.26522            0   -906.28678   -4406.1702    13.482302    13.395907    13.717595    2.1413983    279.05818    3623.8534 
  244000    716.77357   -921.91877            0   -909.50363   -5694.5288    13.482302    13.395907    13.717595    3.4516742    281.01636    3621.9886 
  245000    760.78082   -921.92983            0   -908.75245    -4715.785    13.482302    13.395907    13.717595    2.2110986    282.95229     3619.838 
  246000    797.30715    -920.5875            0   -906.77746   -5104.3469    13.482302    13.395907    13.717595    1.7635322    284.91851    3618.0748 
  247000    830.72761   -921.73837            0   -907.34945   -6313.0793    13.482302    13.395907    13.717595    2.6565292    286.92512     3616.818 
  248000    777.33799   -923.00743            0   -909.54327   -6774.6663    13.482302    13.395907    13.717595    1.9649702    288.93043    3615.5348 
  249000    802.05358   -920.18812            0   -906.29587   -3452.0204    13.482302    13.395907    13.717595    2.8618117      290.885    3613.6117 
  250000     775.2065   -920.94927            0   -907.52202   -5660.4388    13.482302    13.395907    13.717595    2.0068849    292.82159    3611.4662 
  251000    729.10135   -921.11948            0   -908.49081   -6156.1908    13.482302    13.395907    13.717595    2.6050459    294.77581    3609.5395 
  252000    814.60521   -918.93916            0   -904.82949   -2144.8098    13.482302    13.395907    13.717595     2.076285    296.79797    3608.4384 
  253000     780.3326    -921.0402            0   -907.52417   -3682.7087    13.482302    13.395907    13.717595    2.3201271    298.83969    3607.5615 
  254000    724.76063   -921.02767            0    -908.4742   -5054.2535    13.482302    13.395907    13.717595    1.8990112     300.7723    3605.3615 
  255000    923.95057   -920.86954            0   -904.86592   -5183.9869    13.482302    13.395907    13.717595    1.7555408    302.71218    3603.2515 
  256000    858.95746   -922.13834            0   -907.26046   -4882.8129    13.482302    13.395907    13.717595    2.0891706    304.69124    3601.6067 
  257000    853.86522   -922.96253            0   -908.17285   -7227.9661    13.482302    13.395907    13.717595    2.1396927    306.64392    3599.6481 
  258000    792.01868   -921.93287            0   -908.21443   -4959.2385    13.482302    13.395907    13.717595    2.1716522    308.60373    3597.7726 
  259000     880.9935    -921.2269            0   -905.96734    -2517.243    13.482302    13.395907    13.717595    2.9240248    310.56652    3595.9306 
  260000    749.84224   -922.20173            0   -909.21382   -6084.3513    13.482302    13.395907    13.717595    2.1356059    312.54245    3594.2382 
  261000    799.37511   -922.04186            0     -908.196   -5199.1623    13.482302    13.395907    13.717595    2.9892193    314.50657    3592.4074 
  262000    790.67733   -920.98433            0   -907.28912    -7825.442    13.482302    13.395907    13.717595    2.1826198    316.44545    3590.2885 
  263000    751.80313   -920.91592            0   -907.89404   -6389.7495    13.482302    13.395907    13.717595    2.5383291    318.39136    3588.2511 
  264000    807.83107   -923.03114            0   -909.03882   -7175.0822    13.482302    13.395907    13.717595    1.8156002    320.32431    3586.0697 
  265000    806.14475   -921.19612            0     -907.233   -5884.8158    13.482302    13.395907    13.717595    3.1872145    322.25894      3583.91 
  266000    767.45308   -920.44806            0   -907.15511   -5741.6718    13.482302    13.395907    13.717595    2.1851199    324.19711    3581.7922 
  267000    769.37134   -922.90378            0   -909.57761   -6147.6627    13.482302    13.395907    13.717595    2.5391962    326.13028    3579.6216 
  268000    842.55675   -921.66436            0   -907.07055   -6631.0457    13.482302    13.395907    13.717595    1.8361251     328.0672    3577.4947 
  269000    871.02224   -923.04978            0   -907.96292   -6874.7905    13.482302    13.395907    13.717595    2.3867807    330.00606    3575.3911 
  270000     776.9433   -923.12519            0   -909.66787   -8677.5641    13.482302    13.395907    13.717595    2.5529159    331.96359    3573.4904 
  271000    713.40123   -919.53072            0     -907.174   -3242.1221    13.482302    13.395907    13.717595     2.500533    333.90258    3571.3908 
  272000    730.08992   -921.29221            0   -908.64643    -5555.228    13.482302    13.395907    13.717595    2.0008662    335.83541    3569.2275 
  273000      787.501   -923.82823            0   -910.18803   -6265.2377    13.482302    13.395907    13.717595    2.2776391    337.77281    3567.1151 
  274000    813.18963   -921.92967            0   -907.84453    -5340.519    13.482302    13.395907    13.717595    2.2534666    339.71286    3565.0327 
  275000    823.84556   -921.09753            0   -906.82782   -4886.8925    13.482302    13.395907    13.717595    3.8336715    341.64376    3562.8563 
  276000    815.69241    -923.0776            0   -908.94911   -7553.2415    13.482302    13.395907    13.717595    1.9266106    343.64346    3561.3959 
  277000    824.56267   -922.82687            0   -908.54474   -6988.0855    13.482302    13.395907    13.717595    1.9384687    345.57785    3559.2566 
  278000    831.97212   -920.65074            0   -906.24027   -5246.7132    13.482302    13.395907    13.717595    2.7552836    347.51881    3557.1869 
  279000    817.05931   -922.23105            0   -908.07889   -5086.3912    13.482302    13.395907    13.717595     2.532045    349.49327    3555.4594 
  280000    709.63255   -920.17886            0   -907.88742   -5890.6599    13.482302    13.395907    13.717595    2.4451291    351.46708    3553.7227 
  281000    851.34427   -922.07848            0   -907.33246   -4818.9884    13.482302    13.395907    13.717595    2.1430974    353.40138    3551.5862 
  282000     768.3355     -921.824            0   -908.51577   -6430.4717    13.482302    13.395907    13.717595    2.8460815    355.33369    3549.4322 
  283000    740.83527   -920.78227            0   -907.95036   -3796.3363    13.482302    13.395907    13.717595    2.1667771    357.26759    3547.2962 
  284000    833.07402   -920.42477            0   -905.99521   -2849.9117    13.482302    13.395907    13.717595    2.6803031    359.20801    3545.2269 
  285000    713.07448   -921.94013            0   -909.58907   -7372.9711    13.482302    13.395907    13.717595    1.8796435    361.21425    3543.8046 
  286000    824.14898   -921.50412            0   -907.22915   -4150.2847    13.482302    13.395907    13.717595    2.3229818    363.15069    3541.6955 
  287000    807.15358   -921.51325            0   -907.53266    -5663.777    13.482302    13.395907    13.717595    2.0469317    365.08495     3539.567 
  288000    743.88544   -923.10687            0   -910.22213   -8697.3597    13.482302    13.395907    13.717595    2.0217529    367.02124    3537.4601 
  289000    828.03201     -921.437            0   -907.09477   -5328.7964    13.482302    13.395907    13.717595    2.3687647    368.97552    3535.5273 
  290000    762.75735   -921.34062            0   -908.12901   -4043.6645    13.482302    13.395907    13.717595    1.9900582    370.91273    3533.4318 
  291000    770.72388   -923.29068            0   -909.94108   -6760.2345    13.482302    13.395907    13.717595    1.8037887    372.84798    3531.3193 
  292000    813.67643   -921.96212            0   -907.86854   -6824.6089    13.482302    13.395907    13.717595    1.9704168     374.7982    3529.3497 
  293000    831.43041   -921.47085            0   -907.06976   -7241.0679    13.482302    13.395907    13.717595     2.091565    376.73492    3527.2539 
  294000    722.46381   -922.27611            0   -909.76242    -7012.627    13.482302    13.395907    13.717595    3.5630489    378.66906    3525.1357 
  295000    790.03206   -921.23986            0   -907.55583    -5333.053    13.482302    13.395907    13.717595    2.4057034    380.60015    3522.9911 
  296000    749.27697   -920.12197            0   -907.14385   -2684.9395    13.482302    13.395907    13.717595    2.5174678    382.55478    3521.0655 
  297000    739.80913   -922.65925            0   -909.84512   -7263.5975    13.482302    13.395907    13.717595     2.089372    384.49122    3518.9729 
  298000    663.01961   -921.08526            0   -909.60119   -5823.8338    13.482302    13.395907    13.717595    2.5550926    386.42408    3516.8494 
  299000    807.32489   -920.68594            0   -906.70238   -3606.6196    13.482302    13.395907    13.717595    2.0729936    388.35727    3514.7309 
  300000    725.47727   -921.74952            0   -909.18363    -5059.512    13.482302    13.395907    13.717595    2.3337078    390.29116    3512.6205 
  301000    784.06396   -921.44482            0   -907.86416   -4208.5637    13.482302    13.395907    13.717595    2.3572852    392.27854    3510.9905 
  302000     754.4189   -920.02087            0   -906.95369     -6370.52    13.482302    13.395907    13.717595    3.0166835    394.21296    3508.8857 
  303000    792.57324   -923.09701            0   -909.36896    -8942.273    13.482302    13.395907    13.717595    1.8615743     396.1554    3506.8535 
  304000    847.06231   -920.60063            0   -905.92878   -4560.3862    13.482302    13.395907    13.717595    2.5367454    398.08609    3504.7187 
  305000    772.95084    -920.9431            0   -907.55493   -5153.5855    13.482302    13.395907    13.717595    2.1647563    400.02186    3502.6304 
  306000    798.36774   -922.35579            0   -908.52738    -4862.712    13.482302    13.395907    13.717595    2.1305282    401.98253    3500.7605 
  307000    866.58458   -922.81246            0   -907.80247   -6644.9789    13.482302    13.395907    13.717595    2.2327985    403.98088     3499.216 
  308000    794.69976   -921.68326            0   -907.91838   -7934.3305    13.482302    13.395907    13.717595     2.092019    405.91717    3497.1325 
  309000    796.15787   -922.52694            0    -908.7368   -7316.7261    13.482302    13.395907    13.717595    2.3222909    407.85086    3495.0282 
  310000    807.34362   -921.80522            0   -907.82133   -3472.7461    13.482302    13.395907    13.717595    2.7378439    409.83077    3493.3194 
  311000     881.0742   -921.32043            0   -906.05947   -6843.3641    13.482302    13.395907    13.717595    1.9098789    411.76638    3491.2325 
  312000    736.17276   -922.31791            0   -909.56676   -8064.2546    13.482302    13.395907    13.717595    1.7105513     413.7018    3489.1454 
  313000    853.03319    -921.8829            0   -907.10763   -7798.4317    13.482302    13.395907    13.717595    2.4952077    415.63811    3487.0671 
  314000    815.64831    -921.7625            0   -907.63477   -7041.0273    13.482302    13.395907    13.717595    2.1083792    417.66462     3485.743 
  315000    716.66321   -923.38928            0   -910.97606   -6611.0898    13.482302    13.395907    13.717595    1.9310364    419.60177    3483.6705 
  316000    751.77583   -920.57696            0   -907.55556   -4281.4115    13.482302    13.395907    13.717595    2.6755048     421.5356    3481.5718 
  317000    948.72555   -923.52932            0   -907.09658   -4949.5046    13.482302    13.395907    13.717595    2.0745504    423.54364    3480.0844 
  318000    756.45518   -923.30955            0    -910.2071        -8972    13.482302    13.395907    13.717595    2.2841564    425.48444    3478.0426 
  319000    835.88631   -922.50568            0   -908.02741   -6425.7326    13.482302    13.395907    13.717595    2.2489747     427.4179    3475.9419 
  320000    803.85125    -921.2542            0    -907.3308   -4541.5464    13.482302    13.395907    13.717595    2.3286261    429.35299     3473.856 
  321000    758.23508   -920.88868            0    -907.7554   -7240.4881    13.482302    13.395907    13.717595    2.3601915    431.28707    3471.7634 
  322000    764.77813   -922.49269            0   -909.24608   -5535.9167    13.482302    13.395907    13.717595    2.5715674    433.21869    3469.6524 
  323000    790.32776   -919.62719            0   -905.93804   -1723.6642    13.482302    13.395907    13.717595    2.0856667    435.22281    3468.1208 
  324000    750.41895   -920.70364            0   -907.70574   -7353.6178    13.482302    13.395907    13.717595    2.2644601    437.16527     3466.096 
  325000    799.08745   -921.86402            0   -908.02314   -7593.2914    13.482302    13.395907    13.717595    2.2151234    439.09984    3464.0099 
  326000    864.45204    -921.2239            0   -906.25085   -4247.9858    13.482302    13.395907    13.717595    2.3197473    441.04281    3461.9909 
  327000    908.82241   -921.89014            0   -906.14855   -7468.4755    13.482302    13.395907    13.717595    2.1481342    442.97926    3459.9217 
  328000    795.49264    -921.9376            0   -908.15898   -5852.2583    13.482302    13.395907    13.717595    1.9779574    444.93619    3458.0129 
  329000    841.60398   -922.54494            0   -907.96763   -7189.1902    13.482302    13.395907    13.717595    2.5759843    446.87575    3455.9692 
  330000    772.86908    -919.4182            0   -906.03144   -3917.6356    13.482302    13.395907    13.717595    3.4310261    448.81953     3453.959 
  331000    758.16003    -922.2858            0   -909.15382   -5530.9067    13.482302    13.395907    13.717595    2.0219539    450.75776    3451.9069 
  332000    789.12973   -921.83923            0   -908.17083   -7389.7489    13.482302    13.395907    13.717595    2.3076059    452.71148    3449.9737 
  333000    862.20419   -922.22933            0   -907.29521   -6188.8653    13.482302    13.395907    13.717595    2.2651617    454.65719    3447.9796 
  334000    773.58441   -921.56093            0   -908.16178   -3664.4709    13.482302    13.395907    13.717595    1.9973202    456.59292    3445.9107 
  335000    641.63588   -921.75212            0   -910.63844   -8153.5793    13.482302    13.395907    13.717595    2.6411914    458.52955    3443.8496 
  336000    826.32159   -921.60805            0   -907.29545   -6815.1082    13.482302    13.395907    13.717595    2.3806132    460.46237    3441.7611 
  337000    812.54116   -921.97048            0   -907.89656   -7766.5904    13.482302    13.395907    13.717595    2.1580584    462.41067    3439.7891 
  338000     755.6334   -923.82307            0   -910.73485   -6768.7456    13.482302    13.395907    13.717595    1.6892311    464.34789    3437.7352 
  339000    785.18247   -920.70843            0    -907.1084   -6097.1752    13.482302    13.395907    13.717595    2.5568349    466.29841    3435.7804 
  340000    791.26302   -921.53545            0   -907.83009   -6365.3373    13.482302    13.395907    13.717595    2.8190992    468.22864    3433.6767 
  341000    765.81448   -923.10956            0   -909.84499   -7244.7561    13.482302    13.395907    13.717595    2.5442915    470.17391    3431.6843 
  342000      889.377   -921.51615            0   -906.11138   -3432.7473    13.482302    13.395907    13.717595    2.5325912    472.11412    3429.6555 
  343000     750.2098   -921.35532            0   -908.36104   -5325.4195    13.482302    13.395907    13.717595    2.3069208    474.04925    3427.5907 
  344000    789.75302   -922.33536            0   -908.65616   -8050.5589    13.482302    13.395907    13.717595    2.6496237    475.98222    3425.5114 
  345000     843.7477   -920.02377            0   -905.40933   -4226.4239    13.482302    13.395907    13.717595    2.0305398    477.92357    3423.4933 
  346000    759.68402   -921.81171            0   -908.65333   -7152.6784    13.482302    13.395907    13.717595    2.5643056    479.85833    3421.4289 
  347000    804.85563   -921.53586            0   -907.59507   -6312.3846    13.482302    13.395907    13.717595    2.2201904    481.78972    3419.3416 
  348000    832.30821    -920.3292            0    -905.9129   -5092.1467    13.482302    13.395907    13.717595    2.6014173    483.72612     3417.291 
  349000    728.09948   -920.62441            0   -908.01311   -5787.0798    13.482302    13.395907    13.717595    2.5655545    485.65942    3415.2194 
  350000    778.46591     -921.871            0    -908.3873   -6669.9828    13.482302    13.395907    13.717595    2.2554918    487.59805    3413.1863 
  351000    859.71089   -920.82898            0   -905.93804   -4679.1265    13.482302    13.395907    13.717595    2.5064842    489.54299    3411.1979 
  352000    844.75998   -923.27132            0   -908.63935   -7837.7335    13.482302    13.395907    13.717595    2.1896159     491.4803     3409.157 
  353000    758.04063   -921.57441            0   -908.44449   -7265.1783    13.482302    13.395907    13.717595    3.1208913    493.43893    3407.2641 
  354000    832.53427   -921.37033            0   -906.95012   -5827.6446    13.482302    13.395907    13.717595    2.3706464    495.37406    3405.2091 
  355000    787.17986   -922.06977            0   -908.43514   -6032.8902    13.482302    13.395907    13.717595    3.5993085    497.30849    3403.1503 
  356000    758.86814   -921.99507            0   -908.85082   -6049.7192    13.482302    13.395907    13.717595    1.7715545    499.24162    3401.0835 
  357000    881.30197   -921.44676            0   -906.18185   -4254.5546    13.482302    13.395907    13.717595    2.8374199    501.17662    3399.0305 
  358000    706.57451   -922.07964            0   -909.84117   -4887.7689    13.482302    13.395907    13.717595    2.3447796    503.10919     3396.962 
  359000    750.54651   -921.42385            0   -908.42374   -3245.1666    13.482302    13.395907    13.717595    2.2733881    505.05362    3394.9744 
  360000    810.08067   -920.93056            0   -906.89927   -5884.5017    13.482302    13.395907    13.717595    1.9207907    506.98888    3392.9256 
  361000    675.28199   -922.19361            0   -910.49714   -6570.8907    13.482302    13.395907    13.717595     2.334376    508.94559    3391.0206 
  362000    846.82331   -922.70167            0   -908.03396   -6479.1202    13.482302    13.395907    13.717595    2.3493825    510.88603    3389.0074 
  363000    828.04536   -921.81815            0   -907.47569   -5713.5043    13.482302    13.395907    13.717595    2.1413501    512.81883    3386.9441 
  364000     732.6267   -923.02103            0   -910.33131   -9269.2209    13.482302    13.395907    13.717595    2.0538511    514.76647    3384.9795 
  365000    769.66341   -921.16585            0   -907.83461   -7808.5427    13.482302    13.395907    13.717595    2.3241743    516.70504    3382.9556 
  366000    813.54684   -921.53123            0    -907.4399   -7448.1819    13.482302    13.395907    13.717595    1.9176229     518.6421    3380.9226 
  367000    690.20947   -922.32215            0   -910.36713   -7309.9242    13.482302    13.395907    13.717595    3.3929541    520.57901    3378.8892 
  368000      807.011   -921.61736            0   -907.63924   -6405.0702    13.482302    13.395907    13.717595    2.2594336    522.52518    3376.9165 
  369000    830.02944   -921.49035            0   -907.11352   -3288.0735    13.482302    13.395907    13.717595    3.0815739    524.45891    3374.8638 
  370000    747.42992   -922.68966            0   -909.74353   -5814.8855    13.482302    13.395907    13.717595    2.3900688    526.40655    3372.9012 
  371000    813.47008   -920.94732            0   -906.85732   -3815.3897    13.482302    13.395907    13.717595     1.898165    528.35293    3370.9307 
  372000    758.55823   -920.32519            0   -907.18631   -5119.2433    13.482302    13.395907    13.717595    2.8900781    530.28735    3368.8844 
  373000    782.98388   -922.90733            0   -909.34538   -7172.0185    13.482302    13.395907    13.717595    2.2962727    532.24081    3366.9593 
  374000    943.58786   -921.60683            0   -905.26308   -5382.6264    13.482302    13.395907    13.717595    2.2497322    534.17369    3364.9043 
  375000     797.2887   -922.08547            0   -908.27574   -6832.2703    13.482302    13.395907    13.717595    2.4391672     536.1306     3363.001 
  376000    789.12209   -921.90612            0   -908.23785   -5792.0098    13.482302    13.395907    13.717595    1.9704648    538.06379    3360.9492 
  377000    923.84008   -921.38446            0   -905.38275   -5999.9314    13.482302    13.395907    13.717595    2.1942409    540.00778    3358.9654 
  378000    829.95869   -922.27484            0   -907.89924   -7121.9232    13.482302    13.395907    13.717595    2.2465022    541.94448    3356.9367 
  379000    824.80844   -922.12359            0    -907.8372   -5498.0116    13.482302    13.395907    13.717595     2.551892    543.89689    3355.0055 
  380000    829.89053   -919.33244            0   -904.95802   -4440.6263    13.482302    13.395907    13.717595    2.2467543    545.85274    3353.0954 
  381000    808.47011   -921.96305            0   -907.95965   -4800.2059    13.482302    13.395907    13.717595    2.4532508    547.78798    3351.0588 
  382000    846.13698    -922.6662            0   -908.01038   -6673.8059    13.482302    13.395907    13.717595    1.9254726    549.72339    3349.0241 
  383000    779.06916    -919.9684            0   -906.47425   -5863.2892    13.482302    13.395907    13.717595    2.9851118      551.715     3347.331 
  384000    791.10933   -921.74754            0   -908.04485   -4426.3591    13.482302    13.395907    13.717595    2.4320778    553.69397    3345.5594 
  385000    812.88976   -922.93536            0   -908.85541   -7096.1817    13.482302    13.395907    13.717595    2.2877965     555.6262     3343.505 
  386000    851.17014   -921.85482            0   -907.11183   -8181.2694    13.482302    13.395907    13.717595    2.0160162    557.69452    3342.2671 
  387000    881.50555    -923.3156            0   -908.04716   -6473.4533    13.482302    13.395907    13.717595    2.2909636    559.63319    3340.2497 
  388000    765.60136   -922.70044            0   -909.43957   -8106.5189    13.482302    13.395907    13.717595    1.7503355    561.58165    3338.2909 
  389000    893.08075   -921.91153            0   -906.44261   -6298.2488    13.482302    13.395907    13.717595    2.3594127       563.54    3336.3908 
  390000    803.88491   -921.95271            0   -908.02873   -6998.7327    13.482302    13.395907    13.717595    1.9634573    565.49369    3334.4628 
  391000    739.06116   -921.91043            0   -909.10926     -5790.43    13.482302    13.395907    13.717595    1.9565437    567.44232    3332.5049 
  392000    798.39772   -921.37566            0   -907.54672   -1946.3331    13.482302    13.395907    13.717595    2.4430804    569.37801    3330.4714 
  393000    847.56408   -920.55351            0   -905.87297   -6199.4969    13.482302    13.395907    13.717595    2.2324851    571.38464    3328.8518 
  394000    780.79007   -922.16268            0   -908.63872   -6896.2033    13.482302    13.395907    13.717595    1.8635501    573.32193    3326.8273 
  395000    779.60705   -921.56785            0   -908.06439   -7648.8382    13.482302    13.395907    13.717595      2.30608    575.25694    3324.7901 
  396000    824.63353   -920.27443            0   -905.99107   -4064.2613    13.482302    13.395907    13.717595    2.9320136    577.19076    3322.7468 
  397000    805.96807   -921.94162            0   -907.98156   -7353.8417    13.482302    13.395907    13.717595    2.7027568    579.18696    3321.0619 
  398000    755.00099   -921.68928            0   -908.61201    -5175.586    13.482302    13.395907    13.717595    2.4100257     581.1228    3319.0302 
  399000    864.65572   -920.49355            0   -905.51697   -4023.8849    13.482302    13.395907    13.717595    2.1577587    583.05606    3316.9845 
  400000    759.24612   -921.85885            0   -908.70805    -5543.736    13.482302    13.395907    13.717595    2.4310506    584.99329     3314.962 
  401000      702.529   -920.18798            0   -908.01958   -6331.2087    13.482302    13.395907    13.717595    2.9367074    586.92858    3312.9291 
  402000    893.40032   -920.66414            0   -905.18968   -3981.6619    13.482302    13.395907    13.717595    2.8246508    588.93604    3311.3026 
  403000    868.36991    -921.5835            0   -906.54259   -6804.4793    13.482302    13.395907    13.717595    2.7859387    590.87593    3309.2952 
  404000    752.44604   -921.44908            0   -908.41607   -5048.4324    13.482302    13.395907    13.717595    2.8488399    592.81606    3307.2896 
  405000    788.54741   -920.89536            0   -907.23704   -6500.7393    13.482302    13.395907    13.717595     2.109934    594.75242    3305.2635 
  406000    861.92232   -920.72766            0   -905.79842   -4267.6159    13.482302    13.395907    13.717595    2.1835115    596.69118    3303.2512 
  407000    750.99381   -921.99624            0   -908.98838   -8223.1313    13.482302    13.395907    13.717595    2.2647351    598.64996    3301.3498 
  408000    851.72036   -921.39321            0   -906.64068   -6404.7327    13.482302    13.395907    13.717595    2.1017314    600.65399    3299.6966 
  409000    765.79234   -919.26047            0   -905.99629   -5033.4642    13.482302    13.395907    13.717595    2.6615867    602.61297    3297.7946 
  410000    743.73463   -922.18541            0   -909.30329   -4434.3714    13.482302    13.395907    13.717595     1.877451     604.6082    3296.0899 
  411000    808.02746    -920.7147            0   -906.71897   -6728.0361    13.482302    13.395907    13.717595    2.1721653    606.60618    3294.3982 
  412000    796.88957   -920.67813            0   -906.87531   -4298.1039    13.482302    13.395907    13.717595     2.005054     608.5453    3292.3861 
  413000    798.99868   -921.64945            0    -907.8101   -5968.3082    13.482302    13.395907    13.717595    1.8951196    610.48642    3290.3853 
  414000    750.37921   -920.96936            0   -907.97215   -6656.8676    13.482302    13.395907    13.717595    2.4637556     612.4328     3288.413 
  415000    900.03736   -923.01504            0   -907.42562   -7112.0845    13.482302    13.395907    13.717595    1.9285009    614.42009    3286.6599 
  416000    759.46145   -920.61199            0   -907.45747   -5785.9834    13.482302    13.395907    13.717595    2.0002351    616.36191    3284.6628 
  417000    740.99033   -922.64808            0   -909.81349   -6718.1202    13.482302    13.395907    13.717595    2.3435873    618.30061    3282.6496 
  418000    863.10532   -921.11994            0   -906.17021    -7040.165    13.482302    13.395907    13.717595    2.3491935    620.29747    3280.9445 
  419000    796.01899   -921.88775            0   -908.10001   -6470.5749    13.482302    13.395907    13.717595     2.665613    622.23547    3278.9274 
  420000    723.75128   -921.23753            0   -908.70154   -4956.9008    13.482302    13.395907    13.717595    2.1728659    624.17257     3276.906 
  421000    793.75304   -921.52565            0   -907.77717   -5947.7668    13.482302    13.395907    13.717595     2.386799    626.10655    3274.8689 
  422000    810.39449   -921.24137            0   -907.20464   -3955.9614    13.482302    13.395907    13.717595    3.6305554    628.04485    3272.8549 
  423000    838.84979   -922.28924            0   -907.75964   -6083.4335    13.482302    13.395907    13.717595     2.176911     630.0003    3270.9304 
  424000    803.18779   -923.48116            0   -909.56926    -6932.827    13.482302    13.395907    13.717595     2.350016    631.99588    3269.2132 
  425000     803.5294   -920.04301            0   -906.12519   -1541.5227    13.482302    13.395907    13.717595     2.696912    633.93297     3267.193 
  426000    860.82231   -922.90921            0   -907.99903   -7179.1448    13.482302    13.395907    13.717595    2.4539111    635.86738    3265.1595 
  427000    752.79366   -921.51162            0   -908.47259   -4657.1387    13.482302    13.395907    13.717595    3.0015297    637.80299    3263.1327 
  428000    888.85076   -923.04002            0   -907.64436   -7253.1264    13.482302    13.395907    13.717595    1.8599177    639.73961    3261.1117 
  429000    865.62158   -921.20841            0    -906.2151   -4967.8307    13.482302    13.395907    13.717595    2.5675915    641.72425     3259.335 
  430000    803.67102   -922.25619            0   -908.33592   -6428.5582    13.482302    13.395907    13.717595    2.1412106    643.66398    3257.3298 
  431000    717.04728   -921.11653            0   -908.69666   -5209.6966    13.482302    13.395907    13.717595    2.5718658    645.60169    3255.3149 
  432000    803.86621   -919.57468            0   -905.65103   -4435.5042    13.482302    13.395907    13.717595    2.0282764    647.55477    3253.3776 
  433000    801.01668   -922.07244            0   -908.19815   -4585.8463    13.482302    13.395907    13.717595     2.116704    649.50803    3251.4411 
  434000    799.39132   -921.65795            0   -907.81181   -8121.3128    13.482302    13.395907    13.717595    2.2056719     651.4445    3249.4208 
  435000    839.86101   -919.89655            0   -905.34943   -3869.2211    13.482302    13.395907    13.717595    2.0125832    653.38074    3247.3998 
  436000    837.64595   -922.75521            0   -908.24646   -8001.2723    13.482302    13.395907    13.717595     2.328403    655.32059    3245.3972 
  437000    779.07557   -921.56202            0   -908.06776   -4212.2265    13.482302    13.395907    13.717595      2.33966    657.25704    3243.3782 
  438000    915.75257   -921.36597            0   -905.50435   -3206.8537    13.482302    13.395907    13.717595    1.9937653    659.26796    3241.7259 
  439000    732.16812   -921.53051            0   -908.84872   -5352.7684    13.482302    13.395907    13.717595    2.2753349    661.20457    3239.7074 
  440000    817.68024   -921.61022            0    -907.4473   -6236.4215    13.482302    13.395907    13.717595    2.5783976    663.13807    3237.6741 
  441000    936.30606   -920.22748            0   -904.00986   -2925.9665    13.482302    13.395907    13.717595    2.7955085    665.07602    3235.6631 
  442000    808.45955   -921.32077            0   -907.31755   -6381.1046    13.482302    13.395907    13.717595    2.0798397    667.01578    3233.6613 
  443000    746.90454   -921.21895            0   -908.28192   -5152.5272    13.482302    13.395907    13.717595    2.5601444    668.97368    3231.7475 
  444000    935.23344   -922.25004            0   -906.05099   -5850.8698    13.482302    13.395907    13.717595    1.6094281    670.90734    3229.7168 
  445000    764.43258   -921.33297            0   -908.09234   -7978.0517    13.482302    13.395907    13.717595    1.9238534    672.84504    3227.7059 
  446000    758.44356    -921.7071            0    -908.5702   -9331.3566    13.482302    13.395907    13.717595    2.1239284    674.78147    3225.6895 
  447000    825.50739   -920.32057            0   -906.02207   -4720.1063    13.482302    13.395907    13.717595    2.2022106    676.75747     3223.862 
  448000    697.73771   -921.86188            0   -909.77646   -5682.3533    13.482302    13.395907    13.717595    2.2983089    678.69629    3221.8571 
  449000     859.0434   -922.47448            0   -907.59511   -6102.1414    13.482302    13.395907    13.717595    1.9384747    680.63193    3219.8376 
  450000    829.96015   -921.42209            0   -907.04646   -2917.8926    13.482302    13.395907    13.717595    2.5871629    682.56979     3217.829 
  451000    724.81117   -923.46434            0   -910.90998   -7693.5291    13.482302    13.395907    13.717595    1.8177921    684.50494    3215.8081 
  452000     780.2178   -922.21179            0   -908.69774   -6037.1068    13.482302    13.395907    13.717595    2.1960847      686.468    3213.9184 
  453000    829.28996   -921.11601            0     -906.752   -2474.6297    13.482302    13.395907    13.717595    2.8240314    688.42745    3212.0114 
  454000    736.03322   -922.43681            0   -909.68808   -5017.7719    13.482302    13.395907    13.717595    2.3190694    690.36207    3209.9886 
  455000     712.3577   -920.90807            0   -908.56942   -5974.9122    13.482302    13.395907    13.717595    2.4890473    692.29398    3207.9538 
  456000    774.75445   -920.86563            0   -907.44622   -5047.5493    13.482302    13.395907    13.717595     2.435895    694.23148    3205.9454 
  457000    755.21221   -922.30746            0   -909.22654    -7558.234    13.482302    13.395907    13.717595    2.1287807    696.16869     3203.936 
  458000    757.40435   -923.13576            0   -910.01686   -8629.7257    13.482302    13.395907    13.717595    2.8011269    698.11357    3201.9622 
  459000    754.15359   -920.41673            0   -907.35414   -2975.7632    13.482302    13.395907    13.717595     2.652776    700.04745    3199.9383 
  460000    835.20039   -922.49422            0   -908.02783   -6272.7602    13.482302    13.395907    13.717595    3.9048988    701.99275     3197.967 
  461000    720.28883   -922.78672            0   -910.31069   -6559.8429    13.482302    13.395907    13.717595    1.6281089    703.95038    3196.0517 
  462000    882.07541   -921.91568            0   -906.63737   -4807.3577    13.482302    13.395907    13.717595     2.322683    705.88905    3194.0505 
  463000    763.75597   -921.29238            0   -908.06347   -6936.3912    13.482302    13.395907    13.717595    1.8323967    707.83059    3192.0625 
  464000    709.44144   -922.36342            0   -910.07528   -8949.4545    13.482302    13.395907    13.717595    2.0697954    709.76736    3190.0533 
  465000    773.73461   -919.62367            0   -906.22192   -5286.6268    13.482302    13.395907    13.717595    1.9063148    711.70849    3188.0641 
  466000    809.25124   -922.34587            0   -908.32895    -9362.396    13.482302    13.395907    13.717595    2.0670209    713.64258    3186.0437 
  467000    813.34116   -922.83842            0   -908.75065   -5995.1858    13.482302    13.395907    13.717595     2.221394    715.60848    3184.1652 
  468000    835.29861   -921.47564            0   -907.00755   -5672.2759    13.482302    13.395907    13.717595    2.1854539    717.54668    3182.1636 
  469000    809.96332   -922.17643            0   -908.14717   -7603.9599    13.482302    13.395907    13.717595    2.1178086    719.48497    3180.1626 
  470000    819.48576   -923.16637            0   -908.97217   -6988.2581    13.482302    13.395907    13.717595    2.2754088    721.42214     3178.157 
  471000    899.40315   -921.31409            0   -905.73566   -5213.5084    13.482302    13.395907    13.717595    1.8869517    723.35819    3176.1469 
  472000    798.26871    -922.3289            0    -908.5022   -7166.8574    13.482302    13.395907    13.717595    1.9975718    725.35465    3174.4015 
  473000    780.18625   -921.56567            0   -908.05218   -5866.2563    13.482302    13.395907    13.717595    2.2898371    727.32292    3172.5319 
  474000    863.69545    -921.0581            0   -906.09815   -3517.6711    13.482302    13.395907    13.717595    2.5828645    729.25921    3170.5227 
  475000    826.12022   -921.21648            0   -906.90736   -8313.4721    13.482302    13.395907    13.717595    2.3391455    731.19613    3168.5166 
  476000    818.84759   -923.12373            0   -908.94059   -8294.8243    13.482302    13.395907    13.717595    2.0323862    733.21386    3166.8599 
  477000    830.14341    -919.7024            0    -905.3236   -2912.2255    13.482302    13.395907    13.717595    2.8243011    735.14998    3164.8499 
  478000    789.01009   -920.61036            0   -906.94403   -3491.6941    13.482302    13.395907    13.717595    2.3195134    737.08783    3162.8478 
  479000     795.3366    -922.3416            0   -908.56569   -8076.7887    13.482302    13.395907    13.717595     1.790157    739.02596    3160.8472 
  480000     792.3025   -920.29668            0   -906.57332   -5019.7238    13.482302    13.395907    13.717595    2.4153473    740.96224     3158.839 
  481000    801.04186   -921.08716            0   -907.21243   -6733.2429    13.482302    13.395907    13.717595    1.9704385    742.91403    3156.8972 
  482000    731.17376   -921.41655            0   -908.75199   -6642.1289    13.482302    13.395907    13.717595    2.1912164    744.84891    3154.8836 
  483000    875.37504   -922.20646            0   -907.04421   -5590.7514    13.482302    13.395907    13.717595    2.5384887    746.78244    3152.8648 
  484000    909.15288   -923.34685            0   -907.59954   -7350.1045    13.482302    13.395907    13.717595    1.7863696    748.72208    3150.8721 
  485000    770.37843   -922.65412            0    -909.3105   -6469.1959    13.482302    13.395907    13.717595    2.1913697    750.65816    3148.8647 
  486000    839.79251   -920.76539            0   -906.21947   -3844.1953    13.482302    13.395907    13.717595    2.5490849    752.59274    3146.8515 
  487000    785.84665   -921.36723            0   -907.75569   -6102.7081    13.482302    13.395907    13.717595    2.2042023    754.52846    3144.8434 
  488000    793.66823   -921.98533            0   -908.23832   -3939.9651    13.482302    13.395907    13.717595     2.249736    756.47012    3142.8604 
  489000    776.41806   -920.25107            0   -906.80284   -6094.9074    13.482302    13.395907    13.717595    2.9212478    758.44643    3141.0211 
  490000    820.23372   -920.21993            0   -906.01278   -5993.2736    13.482302    13.395907    13.717595    2.3337078    760.37791     3138.996 
  491000    743.86092   -922.05349            0   -909.16918   -7285.4886    13.482302    13.395907    13.717595    2.6025188    762.31226    3136.9832 
  492000    780.62137   -919.99018            0   -906.46915   -5872.9247    13.482302    13.395907    13.717595    2.9567368    764.24535    3134.9656 
  493000    777.07481   -920.16408            0   -906.70447   -4322.9196    13.482302    13.395907    13.717595    1.9793283    766.18037    3132.9564 
  494000    715.66088   -920.49365            0   -908.09779    -2735.287    13.482302    13.395907    13.717595    2.2212458    768.17628    3131.1957 
  495000    768.88674   -922.46603            0   -909.14825   -6314.7861    13.482302    13.395907    13.717595    1.7951287    770.10885    3129.1765 
  496000    884.70482   -921.57178            0   -906.24793   -4595.1361    13.482302    13.395907    13.717595    3.1988944    772.04163    3127.1585 
  497000    785.62021   -922.14297            0   -908.53535   -5960.1806    13.482302    13.395907    13.717595    2.3917167    773.98008    3125.1639 
  498000    770.02955   -922.29211            0   -908.95454   -4962.4756    13.482302    13.395907    13.717595    2.0910713    775.94258    3123.2664 
  499000    832.41785    -921.5216            0   -907.10341   -4563.7899    13.482302    13.395907    13.717595    2.2655508    777.87697    3121.2557 
  500000     848.4436   -921.37542            0   -906.67965   -3216.2707    13.482302    13.395907    13.717595    2.3535417    779.81051     3119.242 
  501000    740.97797   -922.07774            0   -909.24336     -6958.19    13.482302    13.395907    13.717595    1.8491265    781.74487     3117.232 
  502000    784.04211   -920.51104            0   -906.93075   -5940.0945    13.482302    13.395907    13.717595    2.4326528    783.67636     3115.211 
  503000    781.03747   -920.22608            0   -906.69784    -5006.958    13.482302    13.395907    13.717595    1.8970786    785.63276    3113.2891 
  504000    734.97572   -920.59277            0   -907.86236   -4286.5688    13.482302    13.395907    13.717595    3.0764255    787.56875    3111.2865 
  505000    761.49149   -920.87448            0   -907.68479   -5983.4925    13.482302    13.395907    13.717595    2.3468742    789.50296    3109.2771 
  506000    786.03175   -918.57674            0     -904.962    -738.1402    13.482302    13.395907    13.717595    2.0924939    791.43712    3107.2679 
  507000    761.05245   -921.64433            0   -908.46224   -6277.6985    13.482302    13.395907    13.717595    2.2066709    793.45117    3105.5718 
  508000    804.57311   -921.51503            0   -907.57913   -3417.9597    13.482302    13.395907    13.717595     2.803363    795.38544    3103.5628 
  509000    897.40987   -920.36877            0   -904.82486   -1267.8955    13.482302    13.395907    13.717595    2.5381327    797.31971    3101.5542 
  510000     820.0033    -922.8778            0   -908.67464   -5725.9626    13.482302    13.395907    13.717595    2.2471547    799.30613    3099.7482 
  511000    767.87197   -920.37256            0   -907.07235   -3686.3617    13.482302    13.395907    13.717595    2.3141386    801.25389    3097.7918 
  512000    831.57283   -921.58615            0    -907.1826   -3815.4075    13.482302    13.395907    13.717595    2.6375264    803.18927    3095.7878 
  513000    825.21755   -923.63213            0   -909.33865   -7822.1649    13.482302    13.395907    13.717595    3.1091578    805.12134    3093.7713 
  514000    802.45616   -920.65837            0   -906.75914   -6023.1585    13.482302    13.395907    13.717595    2.0762408    807.05723      3091.77 
  515000    726.32941   -920.06071            0   -907.48006   -4701.6575    13.482302    13.395907    13.717595    2.5605078     808.9902    3089.7577 
  516000    803.71819   -922.35443            0   -908.43334   -4431.3589    13.482302    13.395907    13.717595    3.0695583    810.92493    3087.7526 
  517000    802.20397   -923.38651            0   -909.49165   -8405.1838    13.482302    13.395907    13.717595    1.6999185    812.85866     3085.744 
  518000    837.61495   -920.94919            0   -906.44098   -5119.2697    13.482302    13.395907    13.717595    1.9346196    814.79159    3083.7328 
  519000    755.25861   -921.98631            0   -908.90459   -8212.7689    13.482302    13.395907    13.717595    2.4679881    816.76622    3081.8792 
  520000    785.98931   -923.09885            0   -909.48484    -9862.936    13.482302    13.395907    13.717595    1.7018425    818.70172    3079.8779 
  521000     826.7448   -921.26107            0   -906.94114     -4502.93    13.482302    13.395907    13.717595    2.1010011    820.63464    3077.8672 
  522000    757.90243    -921.6997            0   -908.57217   -6258.9134    13.482302    13.395907    13.717595    2.0710143      822.568    3075.8585 
  523000    771.60315   -922.71853            0    -909.3537   -6203.2232    13.482302    13.395907    13.717595    2.0882979    824.60113    3074.2222 
  524000    825.75087   -921.78066            0   -907.47794   -6036.4838    13.482302    13.395907    13.717595    1.7976959    826.54585    3072.2553 
  525000    764.66034   -921.37129            0   -908.12671   -6087.3063    13.482302    13.395907    13.717595    1.9162246    828.47876    3070.2448 
  526000    716.71389   -923.03385            0   -910.61975   -5498.3896    13.482302    13.395907    13.717595    2.1028481    830.45474    3068.3938 
  527000    873.36553   -922.44729            0   -907.31985   -5719.2076    13.482302    13.395907    13.717595    2.2785583    832.43181    3066.5462 
  528000    829.34843   -922.24436            0   -907.87933   -7351.1154    13.482302    13.395907    13.717595    1.9454384    834.37317    3064.5669 
  529000    780.16252   -923.41087            0   -909.89779    -7452.411    13.482302    13.395907    13.717595    3.5256352    836.30684    3062.5595 
  530000    864.66614   -921.62939            0   -906.65263   -3723.5048    13.482302    13.395907    13.717595    2.1347582    838.32609     3060.865 
  531000    803.64424   -921.69434            0   -907.77453   -7215.4987    13.482302    13.395907    13.717595    2.4042433    840.26793    3058.8872 
  532000    805.52551   -924.31073            0   -910.35834   -7697.8289    13.482302    13.395907    13.717595    1.9299031    842.21374    3056.9239 
  533000    829.19564   -923.02639            0     -908.664   -3990.9644    13.482302    13.395907    13.717595    1.9407357    844.14403    3054.9046 
  534000    811.91621   -920.73381            0   -906.67073   -6188.1452    13.482302    13.395907    13.717595    2.5136678    846.07749    3052.8971 
  535000    790.42691    -923.2255            0   -909.53462   -6345.3564    13.482302    13.395907    13.717595    2.0580227    848.03184    3050.9651 
  536000    910.23497   -922.32884            0   -906.56279   -4075.8253    13.482302    13.395907    13.717595    2.1130414    849.96667     3048.963 
  537000    829.75369   -921.95276            0   -907.58071   -6696.2893    13.482302    13.395907    13.717595    2.8246808    851.90161    3046.9616 
  538000    764.13136   -922.02542            0   -908.79001   -7094.1063    13.482302    13.395907    13.717595    2.3728553     853.8353     3044.956 
  539000    898.17813   -920.68954            0   -905.13232   -3940.6225    13.482302    13.395907    13.717595    2.7360657    855.79631    3043.0479 
  540000    832.14115   -922.34158            0   -907.92818   -5246.9357    13.482302    13.395907    13.717595    2.9413209    857.73206      3041.05 
  541000    788.93501   -921.97019            0   -908.30516   -5387.8857    13.482302    13.395907    13.717595    2.1742048     859.6726    3039.0693 
  542000    905.60592   -920.36308            0   -904.67721   -3920.7903    13.482302    13.395907    13.717595    2.2275874    861.60706    3037.0674 
  543000    860.42631    -922.6585            0   -907.75518   -6345.1001    13.482302    13.395907    13.717595    2.5237804    863.56368    3035.1437 
  544000    840.70742   -922.69058            0   -908.12881   -9008.1033    13.482302    13.395907    13.717595    3.0508764    865.49751    3033.1399 
  545000    857.04758    -919.7349            0    -904.8901   -6404.6717    13.482302    13.395907    13.717595    2.9135197    867.43368    3031.1447 
  546000    827.66409   -922.48018            0   -908.14433   -4630.0937    13.482302    13.395907    13.717595    1.9142244    869.43088    3029.3623 
  547000    804.37401   -921.67235            0    -907.7399   -5851.2595    13.482302    13.395907    13.717595    2.1656102    871.37285    3027.3871 
  548000    796.72524   -918.97693            0   -905.17696   -4995.5382    13.482302    13.395907    13.717595    3.1223781    873.30704    3025.3851 
  549000    826.83266   -922.80348            0   -908.48203   -6623.3375    13.482302    13.395907    13.717595    1.7402397     875.2408    3023.3819 
  550000    786.48099   -921.88813            0    -908.2656    -8030.605    13.482302    13.395907    13.717595    2.0724416    877.17947    3021.3959 
  551000    818.60906    -919.9917            0   -905.81269   -2805.7272    13.482302    13.395907    13.717595    2.2503757    879.11533    3019.4006 
  552000    752.71481   -922.47367            0     -909.436   -7892.8042    13.482302    13.395907    13.717595    2.3860538     881.1119    3017.6133 
  553000    773.70808   -921.07974            0   -907.67845   -4987.5943    13.482302    13.395907    13.717595    1.5515276    883.04718    3015.6159 
  554000    924.27057   -922.40234            0   -906.39318   -5208.0895    13.482302    13.395907    13.717595    2.4914905    884.97838    3013.6048 
  555000    725.61176   -922.28541            0   -909.71719   -6307.1569    13.482302    13.395907    13.717595    2.8258738     886.9123    3011.6033 
  556000     845.0307   -922.55579            0   -907.91913   -5351.9081    13.482302    13.395907    13.717595    3.6879863    888.84516    3009.5985 
  557000    775.31097   -921.06172            0   -907.63267   -3720.9229    13.482302    13.395907    13.717595    2.8844756    890.84794    3007.8302 
  558000    729.06721   -922.70679            0   -910.07872   -7416.9827    13.482302    13.395907    13.717595    2.0206848    892.77946    3005.8208 
  559000     763.6446   -922.22935            0   -909.00237   -7347.7337    13.482302    13.395907    13.717595    1.8696506    894.71294    3003.8184 
  560000    823.05494   -921.62535            0   -907.36933   -7289.8723    13.482302    13.395907    13.717595    2.2421729    896.65018    3001.8289 
  561000    807.48884     -922.476            0    -908.4896   -6333.5889    13.482302    13.395907    13.717595    1.7877812    898.64458    3000.0304 
  562000    746.98598   -922.83536            0   -909.89692   -6559.9887    13.482302    13.395907    13.717595    2.3845138    900.57675    2998.0239 
  563000     889.3459   -922.00881            0   -906.60457   -7609.8228    13.482302    13.395907    13.717595    2.6125929    902.51235    2996.0291 
  564000    721.76731   -921.38746            0   -908.88583   -5150.5974    13.482302    13.395907    13.717595    2.6728511    904.50201    2994.2135 
  565000    836.12386   -923.97331            0   -909.49093   -8953.7133    13.482302    13.395907    13.717595    2.2060789    906.46083    2992.2954 
  566000    837.65913   -920.78572            0   -906.27674   -3864.8127    13.482302    13.395907    13.717595    3.2950433    908.39426    2990.2935 
  567000    813.73723   -923.15696            0   -909.06233   -5086.1729    13.482302    13.395907    13.717595    2.9330996    910.32921     2988.297 
  568000    792.01823   -922.22226            0   -908.50382   -5412.1917    13.482302    13.395907    13.717595    2.9205155     912.2784    2986.3472 
  569000    773.25389   -921.00219            0   -907.60877   -5810.1425    13.482302    13.395907    13.717595    2.1948102    914.21369    2984.3521 
  570000     716.8477   -920.71549            0   -908.29907   -3244.8677    13.482302    13.395907    13.717595    2.3610363    916.18622    2982.4785 
  571000    737.38365   -922.68639            0   -909.91427   -5978.6616    13.482302    13.395907    13.717595    2.2634659     918.1299    2980.5109 
  572000    874.79295   -921.62312            0   -906.47096   -6461.6892    13.482302    13.395907    13.717595    2.5341439    920.07752     2978.556 
  573000    797.56738   -922.12986            0   -908.31531   -8239.9772    13.482302    13.395907    13.717595    1.9081254    922.03621     2976.637 
  574000    729.36677   -922.84383            0   -910.21057    -8113.042    13.482302    13.395907    13.717595    1.8795984    923.97352    2974.6489 
  575000    826.12984    -921.8343            0   -907.52502   -4987.0238    13.482302    13.395907    13.717595    2.7529092    925.92745    2972.7144 
  576000    860.92513   -921.81929            0   -906.90732   -4299.1665    13.482302    13.395907    13.717595    2.1727059    927.86399    2970.7242 
  577000    705.82828   -921.90737            0   -909.68182   -7951.9885    13.482302    13.395907    13.717595    2.5366734    929.81033    2968.7655 
  578000    753.72752   -921.32081            0    -908.2656   -4425.2139    13.482302    13.395907    13.717595    2.3647775    931.75398    2966.7982 
  579000    751.73888   -920.16442            0   -907.14365   -2327.5993    13.482302    13.395907    13.717595    2.3570511    933.68972     2964.806 
  580000     747.6092    -921.6021            0   -908.65286   -5035.1904    13.482302    13.395907    13.717595    2.1374004    935.62733    2962.8199 
  581000    762.97042   -922.20723            0   -908.99193   -3545.5341    13.482302    13.395907    13.717595    2.6459595    937.56864    2960.8457 
  582000    747.91838   -919.39336            0   -906.43877   -3185.0807    13.482302    13.395907    13.717595    3.6033428    939.50715    2958.8628 
  583000    820.07094   -922.82612            0   -908.62179   -4152.5238    13.482302    13.395907    13.717595    1.7895695    941.44283    2956.8712 
  584000    890.96909   -922.93113            0   -907.49878   -5666.9232    13.482302    13.395907    13.717595    1.9959816     943.3773     2954.876 
  585000    845.46095   -920.77771            0    -906.1336   -5557.4774    13.482302    13.395907    13.717595    2.4386758    945.31176    2952.8811 
  586000    802.41794   -922.73187            0   -908.83331   -6069.8329    13.482302    13.395907    13.717595    2.6758255    947.24813    2950.8923 
  587000     867.6875    -920.9197            0    -905.8906   -5226.3767    13.482302    13.395907    13.717595    2.0724076    949.18192    2948.8958 
  588000    871.19996   -921.26361            0   -906.17367    -5969.007    13.482302    13.395907    13.717595    2.5163354    951.11929    2946.9106 
  589000    769.07104   -921.59151            0   -908.27053   -6479.4105    13.482302    13.395907    13.717595    2.2957307    953.05725    2944.9274 
  590000    816.67358   -922.06195            0   -907.91646    -7040.433    13.482302    13.395907    13.717595    2.8301811    955.00383     2942.971 
  591000    787.20016   -919.51581            0   -905.88083   -3308.7325    13.482302    13.395907    13.717595    2.4736761    956.94657    2941.0028 
  592000    839.45672    -923.1916            0   -908.65149   -6725.5813    13.482302    13.395907    13.717595    1.7299246    958.88341    2939.0166 
  593000    833.20289   -921.93302            0   -907.50123   -7384.4607    13.482302    13.395907    13.717595     2.522101    960.81707    2937.0209 
  594000    881.49067   -918.59682            0   -903.32865   -4133.3662    13.482302    13.395907    13.717595    2.3281901    962.75391    2935.0352 
  595000     808.5945   -920.60225            0    -906.5967   -5164.4892    13.482302    13.395907    13.717595    2.0897049    964.69025    2933.0481 
  596000    827.64801   -923.10956            0   -908.77398   -7377.2679    13.482302    13.395907    13.717595    3.1212569    966.63331    2931.0817 
  597000    811.42144   -921.04158            0   -906.98707   -3563.4141    13.482302    13.395907    13.717595    2.9528176     968.6409    2929.3104 
  598000    838.62524    -921.0753            0   -906.54959   -7017.3027    13.482302    13.395907    13.717595    2.3935827    970.59458    2927.3756 
  599000    729.59922    -921.2192            0   -908.58192   -5875.3051    13.482302    13.395907    13.717595    2.2266486    972.54055    2925.4176 
  600000    871.75161   -922.59317            0   -907.49368   -6968.4018    13.482302    13.395907    13.717595    2.1189706    974.50005    2923.5002 
  601000    942.25335   -921.01147            0   -904.69083   -4594.6969    13.482302    13.395907    13.717595     2.396693    976.44962    2921.5528 
  602000    780.98549   -921.94128            0   -908.41394   -6051.7011    13.482302    13.395907    13.717595    2.6522526    978.41042    2919.6391 
  603000    752.03831   -920.99196            0   -907.96601   -4540.9991    13.482302    13.395907    13.717595      2.30609    980.34888    2917.6586 
  604000     881.2686   -920.32877            0   -905.06444   -2471.1017    13.482302    13.395907    13.717595    2.0794263    982.31931    2915.7732 
  605000    743.99191   -922.03504            0   -909.14846   -4779.7071    13.482302    13.395907    13.717595    2.7800222      984.277    2913.8497 
  606000    813.62254   -921.14273            0   -907.05009   -4437.3755    13.482302    13.395907    13.717595    2.4309879    986.22781    2911.9058 
  607000    874.52847   -922.31442            0   -907.16683   -7110.6866    13.482302    13.395907    13.717595    1.8651473      988.175    2909.9512 
  608000    749.52084   -922.30269            0   -909.32035   -7970.5423    13.482302    13.395907    13.717595    1.9492512    990.11094    2907.9636 
  609000    829.96351   -921.01278            0    -906.6371    -4006.028    13.482302    13.395907    13.717595    2.5192413    992.06108    2906.0178 
  610000    728.45906   -921.87526            0   -909.25772   -7917.8176    13.482302    13.395907    13.717595    2.8001162    994.02413    2904.1097 
  611000    761.70764   -922.42643            0     -909.233   -5821.8872    13.482302    13.395907    13.717595     2.114949    995.98495    2902.1949 
  612000    805.34042   -921.15287            0   -907.20368    -5344.237    13.482302    13.395907    13.717595    1.9642841    997.92974    2900.2333 
  613000    756.11773   -922.22751            0    -909.1309    -7107.839    13.482302    13.395907    13.717595    2.2641032    999.96106    2898.5226 
  614000    778.86633   -922.97391            0   -909.48328   -7214.1279    13.482302    13.395907    13.717595    2.4322687    1001.9256    2896.6175 
  615000    833.28536   -921.87959            0   -907.44637   -5158.6453    13.482302    13.395907    13.717595    2.6784179    1003.9438    2894.8672 
  616000    826.07586   -922.11853            0   -907.81019   -6023.4342    13.482302    13.395907    13.717595    2.3975084    1005.9474    2893.0735 
  617000    762.83281   -923.24747            0   -910.03455   -8697.1555    13.482302    13.395907    13.717595    2.1042072    1007.9077    2891.1549 
  618000    887.63167   -921.95012            0   -906.57558   -6646.2456    13.482302    13.395907    13.717595    1.9784082    1009.8839    2889.2817 
  619000    799.35175   -921.77349            0   -907.92803   -5905.2673    13.482302    13.395907    13.717595    2.2913827    1011.8615    2887.4122 
  620000    699.09366   -923.32626            0   -911.21736    -4561.793    13.482302    13.395907    13.717595    1.8561031    1013.8633     2885.611 
  621000    762.74167   -922.23679            0   -909.02545   -6565.6733    13.482302    13.395907    13.717595    2.0933226    1015.8392    2883.7355 
  622000    823.45959   -921.06107            0   -906.79805   -2194.4205    13.482302    13.395907    13.717595    1.9800437     1017.811    2881.8481 
  623000    768.39016   -922.17961            0   -908.87043   -5779.6781    13.482302    13.395907    13.717595    2.3412907    1019.7786    2879.9483 
  624000    803.84584   -922.43873            0   -908.51543    -7718.851    13.482302    13.395907    13.717595    2.9293733    1021.7792    2878.1415 
  625000    880.89169   -921.83921            0   -906.58141   -3160.4019    13.482302    13.395907    13.717595    1.6870337    1023.7286    2876.1898 
  626000    799.15976   -922.93322            0   -909.09108   -7449.0996    13.482302    13.395907    13.717595    2.1270163    1025.6753    2874.2308 
  627000    784.14972   -919.04574            0   -905.46359   -3577.5708    13.482302    13.395907    13.717595    3.6583692    1027.6279    2872.2884 
  628000     762.0794   -920.10882            0   -906.90895   -5311.5852    13.482302    13.395907    13.717595    2.3336353    1029.5753    2870.3311 
  629000    791.06263   -922.46316            0   -908.76127   -8225.6774    13.482302    13.395907    13.717595    2.0699268    1031.5337    2868.4047 
  630000    841.24317   -919.73602            0   -905.16497   -2280.0014    13.482302    13.395907    13.717595    2.5870339    1033.4845    2866.4569 
  631000    801.48665    -920.9758            0   -907.09336    -2906.093    13.482302    13.395907    13.717595    2.2557304    1035.4655    2864.5929 
  632000    809.61687   -922.18517            0   -908.16191   -4740.7729    13.482302    13.395907    13.717595     2.534515    1037.4042    2862.6117 
  633000    790.53718   -920.81468            0    -907.1219   -6382.7085    13.482302    13.395907    13.717595    2.5991829    1039.3419    2860.6278 
  634000    865.38149   -921.56655            0    -906.5774   -4643.6496    13.482302    13.395907    13.717595    2.0876451    1041.2908    2858.6746 
  635000    697.56426   -921.19697            0   -909.11456   -7301.1312    13.482302    13.395907    13.717595    2.0499632    1043.2241    2856.6789 
  636000    843.69031    -921.6596            0   -907.04616   -3923.7153    13.482302    13.395907    13.717595    2.2588265    1045.2813    2855.0221 
  637000    786.98835   -921.45839            0   -907.82708   -9729.3941    13.482302    13.395907    13.717595    2.1887589    1047.2371    2853.0874 
  638000    765.32737    -922.6398            0   -909.38367   -9607.0716    13.482302    13.395907    13.717595     2.675908    1049.1758     2851.106 
  639000    815.47803   -920.55479            0   -906.43001   -3676.6662    13.482302    13.395907    13.717595    1.9442079    1051.1094    2849.1109 
  640000    807.70283   -923.16432            0   -909.17421   -7368.8393    13.482302    13.395907    13.717595    1.8439245    1053.0418    2847.1129 
  641000    772.78275   -922.59566            0    -909.2104   -5544.3926    13.482302    13.395907    13.717595    1.9653283    1054.9744    2845.1157 
  642000    813.54083   -921.23367            0   -907.14244   -4192.5764    13.482302    13.395907    13.717595    2.6313598    1056.9061    2843.1163 
  643000    750.14586    -922.2986            0   -909.30542   -5905.8993    13.482302    13.395907    13.717595    2.4294136    1058.9247    2841.3504 
  644000    719.29028   -921.34933            0    -908.8906   -6496.8645    13.482302    13.395907    13.717595    2.3486086    1060.8583    2839.3561 
  645000    804.20342   -921.08986            0   -907.16036   -8013.4142    13.482302    13.395907    13.717595    2.0632987    1062.7956    2837.3717 
  646000    840.27134    -923.7004            0   -909.14618   -5069.8312    13.482302    13.395907    13.717595    2.3751239    1064.7275    2835.3732 
  647000     719.2829   -922.18459            0   -909.72599   -6334.9284    13.482302    13.395907    13.717595    2.8504871    1066.7315    2833.5664 
  648000    790.05252   -921.15326            0   -907.46887   -2425.9444    13.482302    13.395907    13.717595    2.2933647    1068.6664    2831.5759 
  649000    796.77453   -922.09858            0   -908.29776   -6504.2599    13.482302    13.395907    13.717595    2.3293459    1070.5981    2829.5773 
  650000    804.44175   -922.96176            0   -909.02813     -7580.62    13.482302    13.395907    13.717595    2.5051904    1072.5329    2827.5869 
  651000    842.73582   -920.57046            0   -905.97355   -912.58423    13.482302    13.395907    13.717595    2.7935095    1074.4643    2825.5877 
  652000     749.3301   -921.77503            0   -908.79599    -8957.146    13.482302    13.395907    13.717595    1.9572386    1076.4003    2823.6007 
  653000    748.33711   -921.60973            0   -908.64789   -5934.4462    13.482302    13.395907    13.717595    2.1628984    1078.3395    2821.6226 
  654000    863.08845   -921.57972            0   -906.63029   -3350.8072    13.482302    13.395907    13.717595    2.1971441    1080.2814    2819.6514 
  655000    718.22128   -921.94074            0   -909.50053   -5685.9151    13.482302    13.395907    13.717595    2.0391388    1082.2176    2817.6657 
  656000    848.02094   -922.88331            0   -908.19486   -6988.6787    13.482302    13.395907    13.717595     1.983249    1084.1533    2815.6788 
  657000     743.2825   -919.69277            0   -906.81848   -4556.1001    13.482302    13.395907    13.717595    2.8312434    1086.1347    2813.8103 
  658000    821.75998    -922.4022            0   -908.16861   -6072.5556    13.482302    13.395907    13.717595    2.2762714    1088.0653    2811.8104 
  659000    652.00444   -922.80491            0   -911.51164   -8298.7283    13.482302    13.395907    13.717595     1.917619    1089.9972     2809.814 
  660000    795.80348   -922.13435            0   -908.35035   -7729.1936    13.482302    13.395907    13.717595    1.6604998    1091.9298    2807.8195 
  661000    846.69341   -921.60274            0   -906.93728   -8059.6191    13.482302    13.395907    13.717595    2.1390123    1093.8629    2805.8266 
  662000    714.70329   -921.99674            0   -909.61746   -7477.2923    13.482302    13.395907    13.717595    2.1870432    1095.7984      2803.84 
  663000     834.3121   -922.37233            0   -907.92133   -7250.0223    13.482302    13.395907    13.717595    2.1992885    1097.7311    2801.8465 
  664000    850.52614   -921.89914            0   -907.16729   -3698.6465    13.482302    13.395907    13.717595    2.1765546    1099.6639    2799.8534 
  665000    803.09206   -923.38299            0   -909.47275   -7495.1109    13.482302    13.395907    13.717595    2.6959815    1101.5976     2797.863 
  666000    741.46832   -921.72289            0   -908.88002    -6800.904    13.482302    13.395907    13.717595    2.6163237    1103.5285    2795.8654 
  667000    805.76712   -920.46887            0   -906.51229   -4243.4901    13.482302    13.395907    13.717595    2.2837888    1105.4619    2793.8746 
  668000    746.66312   -922.49211            0   -909.55927   -5887.7616    13.482302    13.395907    13.717595    2.8781793    1107.3932    2791.8787 
  669000    868.25319   -923.53142            0   -908.49253   -8937.6809    13.482302    13.395907    13.717595    1.8805905    1109.3264    2789.8878 
  670000     882.1708   -922.68184            0   -907.40188   -5736.8786    13.482302    13.395907    13.717595    1.9857407    1111.2625    2787.9042 
  671000    877.87524   -920.91696            0   -905.71141   -4333.0735    13.482302    13.395907    13.717595    2.5567405     1113.198    2785.9194 
  672000    774.17476   -921.84274            0   -908.43337    -6856.675    13.482302    13.395907    13.717595    2.5741933    1115.1331    2783.9337 
  673000    685.27081   -920.45085            0   -908.58137   -7233.8062    13.482302    13.395907    13.717595    2.2501796    1117.0668    2781.9448 
  674000    813.32364   -918.97525            0   -904.88778   -1766.0715    13.482302    13.395907    13.717595    2.3780209    1118.9993     2779.953 
  675000    856.80874   -921.89223            0   -907.05156   -6711.6879    13.482302    13.395907    13.717595    2.2052305    1120.9375    2777.9755 
  676000    705.85583   -921.26699            0   -909.04096   -3153.6259    13.482302    13.395907    13.717595    2.1621634     1122.871    2775.9865 
  677000    834.28925   -921.41189            0   -906.96128   -6297.9203    13.482302    13.395907    13.717595    1.9763568    1124.8044    2773.9978 
  678000    810.88144    -921.1407            0   -907.09554   -6383.8104    13.482302    13.395907    13.717595    1.9722538    1126.7433    2772.0224 
  679000     808.1248   -922.80769            0   -908.81027   -7730.4035    13.482302    13.395907    13.717595    1.9373281    1128.6844    2770.0526 
  680000     836.7268   -921.90232            0   -907.40949   -4606.2127    13.482302    13.395907    13.717595    2.5524794    1130.6164    2768.0607 
  681000    986.78723   -920.92704            0   -903.83504   -4460.8299    13.482302    13.395907    13.717595    2.2808595    1132.5543    2766.0836 
  682000    839.03313   -922.21025            0   -907.67747   -6920.3956    13.482302    13.395907    13.717595    1.9965721    1134.4916     2764.105 
  683000    768.85117   -921.98302            0   -908.66585   -5776.3669    13.482302    13.395907    13.717595     2.404513    1136.4317    2762.1334 
  684000    859.05443    -920.7137            0   -905.83414   -4042.2714    13.482302    13.395907    13.717595    4.1574141    1138.3624     2760.139 
  685000    809.09986   -922.09429            0   -908.07998   -5446.4242    13.482302    13.395907    13.717595     2.605189    1140.2979    2758.1564 
  686000      877.981   -923.56456            0   -908.35718   -7018.9343    13.482302    13.395907    13.717595     2.737623    1142.2325    2756.1719 
  687000    800.92813   -919.85516            0    -905.9824   -4898.8514    13.482302    13.395907    13.717595    2.4402354    1144.1677     2754.189 
  688000    851.68731   -921.07443            0   -906.32248   -5020.5121    13.482302    13.395907    13.717595    2.0644248    1146.1032     2752.207 
  689000    718.42894   -921.33177            0   -908.88796   -6262.7244    13.482302    13.395907    13.717595     3.215247    1148.0388    2750.2253 
  690000    898.06769   -921.46658            0   -905.91128    -5892.302    13.482302    13.395907    13.717595    2.3211798    1149.9745    2748.2442 
  691000    801.37726   -922.32288            0   -908.44234   -5448.3391    13.482302    13.395907    13.717595    2.5429413    1151.9077    2746.2571 
  692000    740.77728   -921.24511            0   -908.41421   -6104.8546    13.482302    13.395907    13.717595    2.1125969    1153.8405    2744.2692 
  693000    871.96912   -921.37807            0   -906.27481   -2127.4235    13.482302    13.395907    13.717595    2.1730792    1155.7745    2742.2846 
  694000    782.48543   -923.29038            0   -909.73706   -11135.603    13.482302    13.395907    13.717595    1.7017507    1157.7136     2740.312 
  695000    786.94126   -921.70214            0   -908.07164   -4922.1225    13.482302    13.395907    13.717595    1.7736149    1159.6513    2738.3364 
  696000    822.89306   -921.66008            0   -907.40687   -6350.6869    13.482302    13.395907    13.717595    2.4615254     1161.591    2736.3654 
  697000    777.78631   -921.74441            0   -908.27248   -5608.0007    13.482302    13.395907    13.717595    2.7758628    1163.5231    2734.3767 
  698000    729.74303   -923.61805            0   -910.97827   -10374.085    13.482302    13.395907    13.717595    1.6739845    1165.4709    2732.4251 
  699000    867.75148   -922.40657            0   -907.37636   -9508.8002    13.482302    13.395907    13.717595    1.9809042    1167.4388    2730.5206 
  700000    783.11712   -920.83852            0   -907.27426   -5212.8977    13.482302    13.395907    13.717595    2.2451528    1169.3714    2728.5333 
  701000    758.81321   -923.22155            0   -910.07825   -8623.7864    13.482302    13.395907    13.717595    1.7661999     1171.305    2726.5486 
  702000    827.59294   -922.28079            0   -907.94617     -4767.73    13.482302    13.395907    13.717595    1.9049081    1173.2385    2724.5638 
  703000    851.79825   -922.48074            0   -907.72686   -5305.5796    13.482302    13.395907    13.717595    2.0910934     1175.172    2722.5793 
  704000    905.36252   -923.61664            0   -907.93498    -4800.951    13.482302    13.395907    13.717595    2.4644766    1177.1078    2720.6001 
  705000    776.22403   -921.83706            0    -908.3922   -6008.5991    13.482302    13.395907    13.717595    2.0793118      1179.04     2718.613 
  706000    842.92623   -921.04343            0   -906.44323   -4999.7999    13.482302    13.395907    13.717595     2.725596    1181.0163    2716.7273 
  707000    836.72313    -922.0755            0   -907.58274   -5927.2796    13.482302    13.395907    13.717595    2.1670784    1182.9534    2714.7515 
  708000    788.60625   -922.60661            0   -908.94727   -5435.6172    13.482302    13.395907    13.717595    2.5931224    1184.8939    2712.7833 
  709000    849.38396   -921.29003            0   -906.57797   -4124.6374    13.482302    13.395907    13.717595    2.6109339    1186.8267    2710.7979 
  710000    705.84031   -922.45455            0   -910.22879    -8249.518    13.482302    13.395907    13.717595    2.0261974    1188.7684    2708.8329 
  711000    766.37044   -921.11294            0   -907.83874    -3741.644    13.482302    13.395907    13.717595    2.2210582    1190.7043    2706.8548 
  712000    780.06966   -920.50389            0   -906.99242   -4856.1321    13.482302    13.395907    13.717595    2.9279592    1192.6419    2704.8806 
  713000    705.85646   -922.50846            0   -910.28242   -7889.4042    13.482302    13.395907    13.717595    2.2756856    1194.5752    2702.8969 
  714000    793.09595   -922.30463            0   -908.56753   -8957.0751    13.482302    13.395907    13.717595    2.9182111    1196.5084    2700.9132 
  715000    851.43426   -921.89686            0   -907.14929   -6926.5435    13.482302    13.395907    13.717595    2.6605513    1198.4476     2698.943 
  716000    838.25092   -921.92312            0   -907.40389   -5763.5394    13.482302    13.395907    13.717595    3.1779169    1200.3798    2696.9573 
  717000    722.28055   -922.20962            0    -909.6991   -5642.8596    13.482302    13.395907    13.717595    2.1547599    1202.3477    2695.0517 
  718000    810.81729    -920.2302            0   -906.18615   -4260.7142    13.482302    13.395907    13.717595    2.6132206     1204.283    2693.0729 
  719000    786.95051   -921.53585            0   -907.90519   -2255.1284    13.482302    13.395907    13.717595    2.0093373    1206.2198    2691.0977 
  720000    766.01945   -922.39734            0   -909.12922   -6317.3286    13.482302    13.395907    13.717595     2.785635    1208.1516    2689.1117 
  721000    732.50526   -918.82091            0   -906.13329   -3569.1127    13.482302    13.395907    13.717595     3.403023    1210.0896    2687.1393 
  722000    769.64111   -921.48864            0    -908.1578   -6072.6503    13.482302    13.395907    13.717595    2.1100224    1212.0261    2685.1639 
  723000    744.55915   -921.70641            0   -908.81001   -4609.4499    13.482302    13.395907    13.717595    1.9919953    1213.9609    2683.1848 
  724000    849.20984    -922.3119            0   -907.60285   -7546.8907    13.482302    13.395907    13.717595    1.8831083    1215.8978    2681.2105 
  725000    726.05185   -920.44037            0   -907.86453   -4496.3571    13.482302    13.395907    13.717595    1.9447438    1217.8328    2679.2322 
  726000    732.32207   -922.03016            0   -909.34572   -6619.1775    13.482302    13.395907    13.717595    2.3526545    1219.7834    2677.2881 
  727000    801.84201   -922.88749            0    -908.9989   -6176.6131    13.482302    13.395907    13.717595    2.5753425    1221.7154    2675.3035 
  728000      851.463    -921.5697            0   -906.82163   -5114.2975    13.482302    13.395907    13.717595    2.2823578    1223.6633    2673.3536 
  729000    781.53412   -923.08392            0   -909.54708   -5842.9343    13.482302    13.395907    13.717595    1.9630147    1225.5986    2671.3763 
  730000    728.22772   -922.36357            0   -909.75004    -8069.563    13.482302    13.395907    13.717595    2.0254025    1227.5372    2669.4063 
  731000    898.11415   -922.91034            0   -907.35423   -6874.3726    13.482302    13.395907    13.717595    2.3928987    1229.4719    2667.4279 
  732000    775.96834   -920.59549            0   -907.15506   -3816.0591    13.482302    13.395907    13.717595    2.8982549    1231.4041    2665.4443 
  733000    757.80772   -922.87479            0   -909.74891   -8685.4558    13.482302    13.395907    13.717595    1.9006055    1233.3381    2663.4648 
  734000     803.9731   -920.45861            0    -906.5331   -3937.0959    13.482302    13.395907    13.717595    2.6635261    1235.2704    2661.4816 
  735000    788.08331   -921.30982            0   -907.65954   -5501.7666    13.482302    13.395907    13.717595    2.0601777    1237.2037    2659.5008 
  736000    739.24105   -921.74886            0   -908.94457   -3517.2557    13.482302    13.395907    13.717595    2.3325522    1239.1365    2657.5192 
  737000    951.11709    -921.0721            0   -904.59794   -2953.0286    13.482302    13.395907    13.717595    2.7577698    1241.0778    2655.5559 
  738000    799.74625   -921.70723            0   -907.85493   -4387.2095    13.482302    13.395907    13.717595    2.9923097    1243.0158    2653.5854 
  739000     816.0361   -922.82479            0   -908.69034   -8671.4841    13.482302    13.395907    13.717595    2.5822591    1244.9474    2651.6016 
  740000    889.49594   -920.68494            0   -905.27811   -4584.3958    13.482302    13.395907    13.717595    2.5104764    1246.8824    2649.6251 
  741000    859.29377   -922.33215            0   -907.44845   -6877.9501    13.482302    13.395907    13.717595    1.7603166    1248.8167    2647.6472 
  742000    775.89683    -921.6463            0    -908.2071    -4403.079    13.482302    13.395907    13.717595    2.8262807    1250.7612    2645.6911 
  743000    808.74734   -921.38502            0   -907.37683   -3850.2519    13.482302    13.395907    13.717595    3.0835324    1252.6994    2643.7217 
  744000    834.11749   -920.97886            0   -906.53123   -5425.2467    13.482302    13.395907    13.717595    2.5007159    1254.6345     2641.746 
  745000    711.61132   -921.85436            0   -909.52864   -7717.4864    13.482302    13.395907    13.717595    2.2490591    1256.5653    2639.7613 
  746000    782.65631   -920.76902            0   -907.21274   -2499.3879    13.482302    13.395907    13.717595    1.9117932    1258.5006    2637.7861 
  747000    823.99705   -921.81827            0   -907.54594   -6722.7368    13.482302    13.395907    13.717595    2.1231076     1260.434    2635.8071 
  748000    786.56701   -922.84284            0   -909.21882   -8247.5205    13.482302    13.395907    13.717595    2.5643933    1262.3673     2633.828 
  749000    835.24535   -921.58059            0   -907.11342   -7594.3725    13.482302    13.395907    13.717595    1.9923101    1264.3011    2631.8502 
  750000    821.46465   -921.11081            0   -906.88233   -4053.7491    13.482302    13.395907    13.717595    2.0779616    1266.2315    2629.8654 
  751000    782.77075   -922.91911            0   -909.36084   -7948.4753    13.482302    13.395907    13.717595    2.0961046    1268.1919     2627.943 
  752000    741.70209   -920.38035            0   -907.53343   -6856.2145    13.482302    13.395907    13.717595    2.5694493    1270.1268    2625.9677 
  753000    812.82824   -921.04702            0   -906.96813   -6122.9371    13.482302    13.395907    13.717595    2.1531623    1272.0614     2623.992 
  754000    729.30793   -922.50942            0   -909.87718   -6982.9625    13.482302    13.395907    13.717595    2.0545258    1274.0411    2622.1091 
  755000    849.45689   -921.50131            0   -906.78799   -4707.4682    13.482302    13.395907    13.717595    3.1501805    1275.9721     2620.126 
  756000    823.69276   -921.96572            0   -907.69865   -6360.5366    13.482302    13.395907    13.717595    2.4859577    1277.9076    2618.1521 
  757000    692.05029   -923.32019            0   -911.33328   -9219.2392    13.482302    13.395907    13.717595    1.7213115    1279.8408    2616.1738 
  758000    753.81297   -922.32249            0    -909.2658   -7962.6764    13.482302    13.395907    13.717595    2.5600902    1281.7845     2614.217 
  759000    809.24961    -921.1649            0     -907.148   -1990.3626    13.482302    13.395907    13.717595    2.2969318    1283.7166    2612.2366 
  760000    823.09048   -922.02668            0   -907.77005   -6322.5784    13.482302    13.395907    13.717595    2.1029714    1285.6484    2610.2558 
  761000    803.39666   -923.58971            0   -909.67419   -9635.6081    13.482302    13.395907    13.717595    1.7892551    1287.5833    2608.2814 
  762000    855.08274    -921.6784            0   -906.86763   -5605.8634    13.482302    13.395907    13.717595    1.6266832    1289.5163    2606.3033 
  763000     802.0386   -922.06224            0   -908.17025   -7197.7936    13.482302    13.395907    13.717595    2.3544607    1291.4538    2604.3344 
  764000    703.95311    -922.9252            0   -910.73213   -8423.8495    13.482302    13.395907    13.717595     2.035438    1293.3834    2602.3497 
  765000       751.28   -921.21474            0   -908.20193   -9149.9157    13.482302    13.395907    13.717595    2.1270666    1295.3162    2600.3717 
  766000    842.57896   -921.55584            0   -906.96165   -6376.9726    13.482302    13.395907    13.717595    2.5992027    1297.2562     2598.408 
  767000    764.60986   -922.90546            0   -909.66176   -6480.3599    13.482302    13.395907    13.717595    2.1782867    1299.1912    2596.4346 
  768000    782.67691   -921.44944            0    -907.8928   -5883.8049    13.482302    13.395907    13.717595    2.1710757    1301.1264    2594.4615 
  769000    798.46486   -921.06363            0   -907.23353   -5576.9832    13.482302    13.395907    13.717595    4.0365185    1303.0586    2592.4828 
  770000    791.48481   -923.11925            0   -909.41006   -6686.3587    13.482302    13.395907    13.717595    2.1698704    1304.9909    2590.5043 
  771000    789.93898   -921.59243            0   -907.91001   -6486.5294    13.482302    13.395907    13.717595     2.622562     1306.922    2588.5236 
  772000    777.24117   -919.92444            0   -906.46195   -5638.1925    13.482302    13.395907    13.717595    3.3649846    1308.8546     2586.546 
  773000    715.41614   -921.81191            0   -909.42029   -4558.0611    13.482302    13.395907    13.717595    1.9165435    1310.7968    2584.5874 
  774000    782.51446   -922.01794            0   -908.46412   -6399.5336    13.482302    13.395907    13.717595    1.9646803    1312.7297    2582.6107 
  775000     796.1758   -921.01262            0   -907.22217   -4700.6223    13.482302    13.395907    13.717595    1.9960602    1314.6645    2580.6376 
  776000    806.01152    -919.3546            0   -905.39379   -6162.9378    13.482302    13.395907    13.717595    3.1002567    1316.6002    2578.6666 
  777000    790.16748    -922.4486            0   -908.76222   -6550.2411    13.482302    13.395907    13.717595    2.3666667    1318.5328    2576.6896 
  778000    813.64861   -921.92809            0   -907.83499   -4985.2407    13.482302    13.395907    13.717595    1.8281274     1320.466    2574.7139 
  779000     931.2631   -921.49787            0    -905.3676   -4226.2015    13.482302    13.395907    13.717595    2.3493335    1322.4056    2572.7508 
  780000    824.86033   -921.71698            0   -907.42969   -6626.9657    13.482302    13.395907    13.717595    2.5646328     1324.358    2570.8125 
  781000    790.87779   -922.35902            0   -908.66034   -7779.5059    13.482302    13.395907    13.717595    2.7931663    1326.2978    2568.8499 
  782000    902.08995   -922.25809            0   -906.63312   -4513.8062    13.482302    13.395907    13.717595    2.5351024    1328.2342    2566.8807 
  783000    927.87104   -923.14798            0   -907.07646   -5805.3132    13.482302    13.395907    13.717595    3.2849667    1330.1743    2564.9188 
  784000    795.88852   -922.49371            0   -908.70824   -6359.1403    13.482302    13.395907    13.717595    2.8877066    1332.1137    2562.9557 
  785000    810.62702   -920.59943            0   -906.55868   -5612.5833    13.482302    13.395907    13.717595     2.270196    1334.0511    2560.9886 
  786000    766.32643   -923.11304            0   -909.83961   -6908.6717    13.482302    13.395907    13.717595    3.4644563     1335.991    2559.0266 
  787000    706.31457   -920.26197            0     -908.028   -5588.0011    13.482302    13.395907    13.717595    1.8448159    1337.9331    2557.0686 
  788000    813.33755   -921.42254            0   -907.33484   -6123.0863    13.482302    13.395907    13.717595    1.9588256    1339.8671    2555.0953 
  789000    824.02063   -922.68213            0   -908.40938   -6762.6166    13.482302    13.395907    13.717595    2.0262427    1341.8002    2553.1205 
  790000    690.94774   -922.44083            0   -910.47302   -6272.9326    13.482302    13.395907    13.717595    2.3027486    1343.7298    2551.1392 
  791000    851.87838    -921.8779            0   -907.12263    -7187.246    13.482302    13.395907    13.717595     2.084911    1345.6639    2549.1666 
  792000    803.96819   -921.88505            0   -907.95963   -5890.1827    13.482302    13.395907    13.717595    1.8496056    1347.6001    2547.1978 
  793000    761.25447   -923.71226            0   -910.52667   -9169.4005    13.482302    13.395907    13.717595    1.5536833    1349.5415    2545.2391 
  794000    871.58497   -922.61296            0   -907.51636   -4460.1037    13.482302    13.395907    13.717595    2.0680704    1351.4809    2543.2767 
  795000    827.09851   -922.43116            0    -908.1051   -8191.1686    13.482302    13.395907    13.717595    2.4838157    1353.4109    2541.2968 
  796000    769.95194   -921.99931            0   -908.66309   -2809.9962    13.482302    13.395907    13.717595    1.9174768     1355.343    2539.3208 
  797000    799.26794   -919.74231            0    -905.8983   -2261.5677    13.482302    13.395907    13.717595    2.4524824    1357.2785    2537.3513 
  798000    664.83735   -920.43829            0   -908.92273   -3766.5496    13.482302    13.395907    13.717595    2.7242183    1359.2143    2535.3825 
  799000    678.14559   -920.13436            0   -908.38829   -6730.5777    13.482302    13.395907    13.717595    2.8684036    1361.1512    2533.4158 
  800000    780.69215   -920.12394            0   -906.60168   -6404.3293    13.482302    13.395907    13.717595    2.7231351    1363.0886    2531.4503 
  801000    835.82402    -924.0584            0   -909.58121   -6849.5848    13.482302    13.395907    13.717595    1.9921724    1365.0209    2529.4753 
  802000     831.9474    -922.2217            0   -907.81165   -7610.3915    13.482302    13.395907    13.717595    2.7952778    1366.9559    2527.5054 
  803000    837.79007     -921.433            0   -906.92176   -3977.8491    13.482302    13.395907    13.717595    2.5025933    1368.8912    2525.5361 
  804000    719.06095     -921.274            0   -908.81924   -7915.9824    13.482302    13.395907    13.717595    2.1384065    1370.8284    2523.5704 
  805000    673.84468   -923.01012            0   -911.33855   -8345.0252    13.482302    13.395907    13.717595    1.9809219    1372.7739    2521.6202 
  806000    867.20331   -922.60521            0    -907.5845   -6906.2412    13.482302    13.395907    13.717595    2.4538023    1374.7042    2519.6419 
  807000    805.57916   -920.87608            0   -906.92276   -3305.3644    13.482302    13.395907    13.717595    2.4250562    1376.6453    2517.6838 
  808000     724.5101   -922.61702            0   -910.06788   -6843.0489    13.482302    13.395907    13.717595    2.3249715    1378.5757    2515.7059 
  809000    766.05079    -921.0473            0   -907.77864   -4701.0524    13.482302    13.395907    13.717595    2.0594799    1380.5104    2513.7362 
  810000    732.99447   -920.22121            0   -907.52512   -5513.6328    13.482302    13.395907    13.717595    2.5746838    1382.4467    2511.7694 
  811000    767.80281   -922.23093            0   -908.93192   -5088.8464    13.482302    13.395907    13.717595    2.2759066    1384.3877    2509.8112 
  812000    770.33607   -921.88906            0   -908.54618   -5328.7479    13.482302    13.395907    13.717595    2.2495584    1386.3209    2507.8388 
  813000     803.0756   -920.40978            0   -906.49982   -1180.2207    13.482302    13.395907    13.717595    2.1637073     1388.283    2505.9189 
  814000    754.94283   -922.03135            0   -908.95509   -6075.2531    13.482302    13.395907    13.717595     2.305905    1390.2234    2503.9597 
  815000    787.07692    -921.9955            0   -908.36265   -3854.8588    13.482302    13.395907    13.717595    2.0136704    1392.1567    2501.9879 
  816000    852.42857   -922.09472            0   -907.32993   -7945.5433    13.482302    13.395907    13.717595    1.7396061    1394.0946    2500.0244 
  817000    855.75211   -921.30961            0   -906.48725   -7118.4403    13.482302    13.395907    13.717595    2.2957199    1396.0265    2498.0501 
  818000    693.72556   -921.45034            0   -909.43442   -6567.5964    13.482302    13.395907    13.717595    2.8178706     1398.048     2496.236 
  819000    874.13689   -921.45327            0   -906.31247   -3353.3782    13.482302    13.395907    13.717595     3.170745    1399.9803    2494.2625 
  820000    865.11345   -922.16642            0   -907.18191   -4653.1026    13.482302    13.395907    13.717595    2.1883088    1402.0363     2492.509 
  821000    709.07372   -921.20436            0   -908.92259   -5729.8334    13.482302    13.395907    13.717595    3.1835292    1404.0011    2490.5929 
  822000    909.92689   -920.75179            0   -904.99108   -5195.1997    13.482302    13.395907    13.717595    2.4070388    1405.9348    2488.6215 
  823000    707.22695   -920.07119            0   -907.82142   -2677.3213    13.482302    13.395907    13.717595    2.5352503    1407.8836    2486.6768 
  824000    780.12379   -921.83963            0   -908.32721    -6374.455    13.482302    13.395907    13.717595    2.3868186    1409.8172    2484.7055 
  825000    949.46658    -920.7793            0   -904.33372   -1937.4599    13.482302    13.395907    13.717595    3.2380055    1411.7583    2482.7473 
  826000    826.28039   -921.39545            0   -907.08356   -4926.8306    13.482302    13.395907    13.717595    2.1761103     1413.693    2480.7781 
  827000    741.01356    -921.4553            0   -908.62031   -4628.1222    13.482302    13.395907    13.717595    2.2342692    1415.6367    2478.8247 
  828000     860.2477   -920.51531            0   -905.61508   -5612.3013    13.482302    13.395907    13.717595    2.1388441    1417.6645    2477.0182 
  829000    811.04657   -921.42089            0   -907.37287   -7571.1018    13.482302    13.395907    13.717595     2.214242     1419.599    2475.0485 
  830000    796.30116   -921.95247            0   -908.15985    -4967.214    13.482302    13.395907    13.717595    1.8364612    1421.5453    2473.0993 
  831000    815.57362   -920.34798            0   -906.22154   -2648.0391    13.482302    13.395907    13.717595    1.8694243    1423.4777    2471.1261 
  832000    798.95771   -920.17047            0   -906.33184   -3604.7573    13.482302    13.395907    13.717595    2.1465251    1425.4257    2469.1801 
  833000    779.51065   -921.91766            0   -908.41586   -6794.1102    13.482302    13.395907    13.717595    2.0341116    1427.3597    2467.2097 
  834000    835.26903   -920.72294            0   -906.25536   -3913.2671    13.482302    13.395907    13.717595    2.0194888    1429.3015     2465.253 
  835000    858.73527   -922.11127            0   -907.23724   -6693.2848    13.482302    13.395907    13.717595     2.128063    1431.2425    2463.2948 
  836000    758.68869   -922.03368            0   -908.89254   -5109.3033    13.482302    13.395907    13.717595    1.9071808    1433.1969    2461.3599 
  837000    869.12391   -920.93367            0    -905.8797   -4507.9542    13.482302    13.395907    13.717595    2.0997143    1435.1374     2459.401 
  838000    715.38952   -921.85587            0   -909.46471   -5113.7126    13.482302    13.395907    13.717595     3.055899    1437.0754    2457.4378 
  839000    861.14165    -922.7534            0   -907.83769   -7614.1166    13.482302    13.395907    13.717595    2.0240038    1439.0156    2455.4786 
  840000    820.69615   -920.87636            0    -906.6612   -3672.9659    13.482302    13.395907    13.717595    3.1267867    1440.9575    2453.5222 
  841000    738.72782    -923.0036            0    -910.2082   -7056.9863    13.482302    13.395907    13.717595    2.1089145    1442.8973    2451.5623 
  842000    691.06584   -919.87721            0   -907.90736   -3427.3646    13.482302    13.395907    13.717595    2.5929834    1444.8375    2449.6031 
  843000    723.58451    -919.6075            0   -907.07439   -3730.6677    13.482302    13.395907    13.717595    2.7712673    1446.7782    2447.6449 
  844000    730.45535   -923.35594            0   -910.70382   -9719.8066    13.482302    13.395907    13.717595    2.1790688    1448.7099    2445.6715 
  845000    792.75665    -921.6459            0   -907.91468   -2582.6851    13.482302    13.395907    13.717595    2.3653164     1450.648    2443.7091 
  846000    762.84316   -920.29565            0   -907.08255   -5161.3924    13.482302    13.395907    13.717595    2.4475355    1452.5846    2441.7441 
  847000    698.65071   -922.33807            0   -910.23684   -7830.2057    13.482302    13.395907    13.717595    2.0679175    1454.5277    2439.7902 
  848000    830.56185   -922.45452            0   -908.06847   -5823.5728    13.482302    13.395907    13.717595    1.9507527     1456.473    2437.8398 
  849000    732.24991   -920.14999            0   -907.46679   -2726.6072    13.482302    13.395907    13.717595    2.3602433    1458.4444    2435.9332 
  850000    786.20203    -922.9061            0   -909.28841   -7524.3989    13.482302    13.395907    13.717595     2.572829    1460.3993    2433.9988 
  851000    713.94583   -921.45174            0   -909.08559   -6719.8897    13.482302    13.395907    13.717595    2.6142428    1462.3337    2432.0304 
  852000    876.44119   -922.14181            0   -906.96109   -4139.0554    13.482302    13.395907    13.717595    2.1200262    1464.2683    2430.0623 
  853000    747.61574   -922.47654            0    -909.5272   -5602.7676    13.482302    13.395907    13.717595    2.4709452    1466.2009    2428.0911 
  854000    758.55066   -921.09941            0   -907.96066   -1139.8347    13.482302    13.395907    13.717595    2.8169627    1468.1408    2426.1319 
  855000    804.57854   -920.78273            0   -906.84673   -5426.3093    13.482302    13.395907    13.717595    2.2669788    1470.0789    2424.1698 
  856000     758.6791   -922.48821            0   -909.34724   -5411.3748    13.482302    13.395907    13.717595    2.6064149    1472.0115    2422.1987 
  857000    956.44178   -921.94763            0   -905.38124   -5099.9774    13.482302    13.395907    13.717595    1.9241241    1473.9481    2420.2344 
  858000    822.33462   -922.01854            0   -907.77499   -7604.3311    13.482302    13.395907    13.717595    1.8511432    1475.8814    2418.2647 
  859000    756.37581   -921.53681            0   -908.43573   -6418.3408    13.482302    13.395907    13.717595    3.1238022    1477.8161    2416.2974 
  860000    898.58361   -920.32596            0   -904.76172   -2989.2809    13.482302    13.395907    13.717595    2.6640176    1479.7521    2414.3323 
  861000    795.82215   -921.50363            0   -907.71931   -5772.2493    13.482302    13.395907    13.717595     2.284753    1481.6905    2412.3713 
  862000    707.49227   -920.64401            0   -908.38963   -4179.7269    13.482302    13.395907    13.717595    2.2297641    1483.6284    2410.4094 
  863000    912.18608   -921.02932            0   -905.22947   -6477.4174    13.482302    13.395907    13.717595    2.0518262    1485.5668    2408.4484 
  864000    788.28961   -921.83829            0   -908.18444   -3716.3413    13.482302    13.395907    13.717595    2.0336846    1487.5104    2406.4958 
  865000    723.50432   -920.51367            0   -907.98195    -3225.015    13.482302    13.395907    13.717595    2.5007272    1489.4471    2404.5323 
  866000    839.71516   -919.66231            0   -905.11772    -3303.628    13.482302    13.395907    13.717595     3.325476    1491.3812    2402.5645 
  867000    793.31357   -921.65551            0   -907.91463   -6358.8355    13.482302    13.395907    13.717595    1.7521426    1493.3219    2400.6075 
  868000    786.93333   -922.10391            0   -908.47355   -7847.0969    13.482302    13.395907    13.717595    2.6905397    1495.2637    2398.6521 
  869000    819.03561   -919.67227            0   -905.48587   -3268.4242    13.482302    13.395907    13.717595    3.2539063    1497.1981    2396.6852 
  870000    716.45507   -921.70104            0   -909.29143    -4586.591    13.482302    13.395907    13.717595    2.3678238    1499.1352    2394.7224 
  871000    728.31058   -920.39492            0   -907.77996   -6673.5659    13.482302    13.395907    13.717595    3.4931024    1501.0673     2392.752 
  872000    828.96371   -921.15032            0   -906.79196   -6797.1111    13.482302    13.395907    13.717595    1.9887375    1503.0049    2390.7901 
  873000    748.45272   -923.02635            0   -910.06251   -7690.8678    13.482302    13.395907    13.717595     1.703883    1504.9388    2388.8226 
  874000    786.50508   -920.89166            0   -907.26871   -1679.9803    13.482302    13.395907    13.717595     2.587586     1506.875    2386.8589 
  875000    802.60572   -921.84918            0   -907.94736   -5202.0397    13.482302    13.395907    13.717595    2.8364989    1508.8095    2384.8924 
  876000    689.46961   -922.66538            0   -910.72317   -5801.5346    13.482302    13.395907    13.717595    2.4054984    1510.7407    2382.9209 
  877000    857.85882   -922.76115            0    -907.9023   -5400.2515    13.482302    13.395907    13.717595    2.4002124    1512.6762    2380.9563 
  878000    839.51221   -921.46474            0   -906.92367   -4642.3875    13.482302    13.395907    13.717595    2.3983159    1514.6086    2378.9868 
  879000    622.86085   -921.06264            0   -910.27416   -5092.4416    13.482302    13.395907    13.717595    1.8445097    1516.5426      2377.02 
  880000    781.70615   -921.11404            0   -907.57422   -5794.2051    13.482302    13.395907    13.717595    2.6223913    1518.4756    2375.0516 
  881000    819.46991   -921.74583            0   -907.55191   -4395.2067    13.482302    13.395907    13.717595    2.6210234    1520.4158    2373.0945 
  882000    672.72629   -922.27539            0   -910.62319   -7309.8898    13.482302    13.395907    13.717595    2.4476989    1522.3603    2371.1443 
  883000    843.52642   -922.52557            0   -907.91497   -8533.4893    13.482302    13.395907    13.717595     2.011944     1524.317     2369.213 
  884000    779.25012   -920.80577            0   -907.30849   -4756.8433    13.482302    13.395907    13.717595    2.3053584    1526.2587    2367.2584 
  885000    730.55403   -921.73074            0   -909.07692    -7409.197    13.482302    13.395907    13.717595    2.1523344    1528.1916    2365.2902 
  886000    765.50845   -922.30751            0   -909.04824   -7580.2256    13.482302    13.395907    13.717595     1.936175    1530.1501    2363.3616 
  887000    840.64108   -921.15838            0   -906.59776   -4677.3855    13.482302    13.395907    13.717595    2.8340926    1532.0877    2361.4008 
  888000    710.16664   -921.65714            0   -909.35644    -7053.903    13.482302    13.395907    13.717595    2.4620297    1534.0217    2359.4344 
  889000    692.24273   -920.01767            0   -908.02743   -4021.9665    13.482302    13.395907    13.717595    2.5219223    1535.9531    2357.4641 
  890000    850.87674   -921.29383            0   -906.55591     -5893.37    13.482302    13.395907    13.717595    2.4513365    1537.8925    2355.5062 
  891000    754.20576   -922.38023            0   -909.31674   -9812.6285    13.482302    13.395907    13.717595    1.7466537    1539.8327    2353.5496 
  892000     874.3355   -920.86713            0   -905.72289   -5024.0704    13.482302    13.395907    13.717595    1.8943971    1541.7681    2351.5857 
  893000    836.35244   -921.72495            0   -907.23861   -7645.2999    13.482302    13.395907    13.717595    2.1015686    1543.7066    2349.6265 
  894000    811.28452    -922.8612            0   -908.80905   -6293.9265    13.482302    13.395907    13.717595    2.3964037    1545.6437    2347.6654 
  895000    786.23731   -918.59641            0    -904.9781   -2120.5963    13.482302    13.395907    13.717595    2.1563625    1547.5851    2345.7107 
  896000    855.58292   -922.15103            0   -907.33159   -5658.7322    13.482302    13.395907    13.717595     1.873957    1549.5204     2343.747 
  897000    827.68283   -922.86684            0   -908.53067   -6014.2706    13.482302    13.395907    13.717595    2.1953545    1551.4653    2341.7976 
  898000     799.9002   -920.09982            0   -906.24486   -4535.8561    13.482302    13.395907    13.717595    3.3052879    1553.4012    2339.8348 
  899000    838.58166   -921.70368            0   -907.17873   -5634.7079    13.482302    13.395907    13.717595     3.072462     1555.344    2337.8825 
  900000    817.76675   -922.74097            0   -908.57654   -7558.2008    13.482302    13.395907    13.717595     2.249508    1557.2794    2335.9191 
  901000    827.00327   -920.47673            0   -906.15233   -4176.3645    13.482302    13.395907    13.717595    2.3136725    1559.2141    2333.9547 
  902000    938.91455    -921.3664            0   -905.10359   -5442.6094    13.482302    13.395907    13.717595    3.6389095    1561.1483    2331.9897 
  903000    808.00745   -922.74645            0   -908.75107   -6733.9891    13.482302    13.395907    13.717595    1.9422645    1563.0803    2330.0213 
  904000    905.36558   -923.13926            0   -907.45756   -5424.3396    13.482302    13.395907    13.717595    2.0139602    1565.0177    2328.0612 
  905000    847.91236   -920.57074            0   -905.88417   -6105.5326    13.482302    13.395907    13.717595    2.0507475    1566.9596    2326.1077 
  906000    715.00447    -921.8202            0    -909.4357   -5468.0219    13.482302    13.395907    13.717595    1.9522202    1568.9057    2324.1606 
  907000     848.8711   -921.40474            0   -906.70156   -3486.3718    13.482302    13.395907    13.717595    2.3712405    1570.8483    2322.2083 
  908000    783.01276   -921.83159            0   -908.26914   -8300.8761    13.482302    13.395907    13.717595    2.5713412    1572.7886    2320.2524 
  909000    722.30883   -922.38299            0   -909.87198   -7432.6526    13.482302    13.395907    13.717595     2.153552     1574.729    2318.2969 
  910000    897.51746    -922.4682            0   -906.92242   -5142.1745    13.482302    13.395907    13.717595    2.3414232    1576.6721    2316.3454 
  911000    712.33021   -920.91308            0   -908.57491   -4808.7516    13.482302    13.395907    13.717595    2.0714985    1578.6147    2314.3932 
  912000    808.95432   -923.58317            0   -909.57138   -10330.702    13.482302    13.395907    13.717595    2.5763913    1580.5523    2312.4337 
  913000    790.52937   -921.45533            0   -907.76269    -4319.448    13.482302    13.395907    13.717595    2.5453488    1582.4942    2310.4805 
  914000    842.52791     -921.966            0   -907.37269   -5012.2485    13.482302    13.395907    13.717595    2.9256616    1584.4317    2308.5208 
  915000    661.38019   -920.95393            0   -909.49825   -5567.4772    13.482302    13.395907    13.717595    2.4917093    1586.3715    2306.5646 
  916000     841.9924   -921.61731            0   -907.03328   -4186.8782    13.482302    13.395907    13.717595     1.748574    1588.3106    2304.6075 
  917000    753.30693    -920.2465            0   -907.19858   -5443.4777    13.482302    13.395907    13.717595    2.0450962     1590.253    2302.6553 
  918000    830.65874   -922.68596            0   -908.29824   -4859.5658    13.482302    13.395907    13.717595    2.0019234    1592.1951    2300.7025 
  919000     781.8278   -921.48892            0   -907.94699   -5305.8748    13.482302    13.395907    13.717595    2.5702028    1594.1336    2298.7446 
  920000    856.63142   -920.74314            0   -905.90555    -2792.598    13.482302    13.395907    13.717595    2.6392738    1596.0668     2296.779 
  921000    782.02946   -920.06094            0   -906.51552   -5271.6895    13.482302    13.395907    13.717595       2.1765    1598.0052    2294.8211 
  922000    737.04797   -921.22038            0   -908.45407   -6823.1764    13.482302    13.395907    13.717595    1.9003535    1599.9446    2292.8646 
  923000    846.97717    -921.0187            0   -906.34833   -3216.6869    13.482302    13.395907    13.717595    2.2800692    1601.8815    2290.9046 
  924000    761.86789   -919.87287            0   -906.67667   -2726.3404    13.482302    13.395907    13.717595    2.4314665    1603.8148    2288.9395 
  925000    752.16505   -921.49444            0   -908.46629   -7665.3792    13.482302    13.395907    13.717595    1.7929816    1605.7449      2286.97 
  926000    835.07931   -920.61708            0   -906.15279   -2797.8022    13.482302    13.395907    13.717595    2.6238189    1607.6814    2285.0096 
  927000     835.5205   -923.00572            0   -908.53378   -7448.0015    13.482302    13.395907    13.717595    1.6255081     1609.617    2283.0481 
  928000    805.60707   -922.58393            0   -908.63012   -6913.5827    13.482302    13.395907    13.717595    2.4239965    1611.5522    2281.0859 
  929000     912.4036    -922.0734            0   -906.26979   -8028.0131    13.482302    13.395907    13.717595    2.0366055      1613.49    2279.1276 
  930000    802.42524   -921.52456            0   -907.62586   -5870.9492    13.482302    13.395907    13.717595    1.9307089    1615.4303    2277.1728 
  931000     795.2481   -922.26906            0   -908.49468    -5553.134    13.482302    13.395907    13.717595    2.8642003    1617.3691     2275.216 
  932000    836.76923   -920.76799            0   -906.27443   -4754.7976    13.482302    13.395907    13.717595    1.8595655    1619.3084    2273.2598 
  933000    778.31884   -922.04849            0   -908.56733   -6016.7191    13.482302    13.395907    13.717595    2.0482106    1621.2483    2271.3047 
  934000     720.0137   -921.23138            0   -908.76012   -7776.3481    13.482302    13.395907    13.717595    2.8464405    1623.1813    2269.3398 
  935000    881.92156   -922.78835            0   -907.51272     -6553.03    13.482302    13.395907    13.717595    1.8491519    1625.1177    2267.3798 
  936000    802.40372   -922.12858            0   -908.23026   -6354.6532    13.482302    13.395907    13.717595    1.8817983    1627.0565    2265.4232 
  937000    703.86396   -922.82094            0   -910.62941   -8081.5437    13.482302    13.395907    13.717595    1.6767533    1628.9892    2263.4582 
  938000    804.05744    -921.0906            0   -907.16363   -3547.0607    13.482302    13.395907    13.717595     3.381497    1630.9246    2261.4969 
  939000    751.56836   -921.02709            0   -908.00928   -5817.3024    13.482302    13.395907    13.717595    2.5299966    1632.8639    2259.5411 
  940000    748.27161   -923.38471            0     -910.424   -6252.9375    13.482302    13.395907    13.717595    1.8476017    1634.7951    2257.5742 
  941000    796.42246   -920.69754            0   -906.90282   -3491.8642    13.482302    13.395907    13.717595    2.4862584    1636.7316    2255.6146 
  942000    782.59558   -921.23235            0   -907.67712   -5795.8962    13.482302    13.395907    13.717595    2.0431464    1638.6658     2253.652 
  943000    761.52164   -922.84401            0    -909.6538   -5651.1036    13.482302    13.395907    13.717595    2.5521527    1640.6005    2251.6901 
  944000    888.21699   -921.16282            0   -905.77814   -4321.3832    13.482302    13.395907    13.717595    2.3629931    1642.5411    2249.7364 
  945000    831.64277   -922.95184            0   -908.54707   -7389.5301    13.482302    13.395907    13.717595    2.2009692    1644.4772    2247.7766 
  946000    737.48985   -921.34234            0   -908.56838   -5759.0671    13.482302    13.395907    13.717595    2.1148425    1646.4094    2245.8114 
  947000    887.20117   -921.27645            0   -905.90936   -4142.2129    13.482302    13.395907    13.717595    2.2739165    1648.3491    2243.8566 
  948000    822.99282   -922.21734            0   -907.96239   -7322.2696    13.482302    13.395907    13.717595    1.9939194    1650.2907    2241.9043 
  949000    836.25408   -922.56833            0   -908.08369   -4985.8575    13.482302    13.395907    13.717595    2.3112199    1652.2318    2239.9515 
  950000    939.03094   -920.98486            0   -904.72003   -6288.3008    13.482302    13.395907    13.717595    2.4843925    1654.1722    2237.9977 
  951000     859.6442   -921.94068            0    -907.0509   -4859.6279    13.482302    13.395907    13.717595     1.825222    1656.1116    2236.0426 
  952000    783.83597   -922.08029            0   -908.50358   -4187.3534    13.482302    13.395907    13.717595    2.9731351     1658.045    2234.0794 
  953000    843.88815   -920.28812            0   -905.67125   -2678.8775    13.482302    13.395907    13.717595    1.8061329    1659.9788    2232.1169 
  954000    797.61138   -921.49493            0   -907.67961   -5652.9552    13.482302    13.395907    13.717595    1.9824534    1661.9176    2230.1611 
  955000    859.54599   -923.21038            0    -908.3223   -7855.7792    13.482302    13.395907    13.717595    2.0458219    1663.8525    2228.2001 
  956000    852.83229   -920.97851            0   -906.20672   -3056.6288    13.482302    13.395907    13.717595    2.2572065    1665.7922    2226.2456 
  957000    817.76564   -921.12853            0   -906.96412   -5111.8987    13.482302    13.395907    13.717595    2.3113413    1667.7311    2224.2901 
  958000    818.28546    -923.0681            0   -908.89469   -7378.1324    13.482302    13.395907    13.717595    2.2092588     1669.673    2222.3387 
  959000    831.07079   -920.31291            0   -905.91804    -3635.342    13.482302    13.395907    13.717595    2.5171162    1671.6124    2220.3838 
  960000    806.32647   -923.14874            0   -909.18247   -7440.0975    13.482302    13.395907    13.717595    2.1717291     1673.552    2218.4294 
  961000    819.49473   -922.25455            0   -908.06019   -3958.6832    13.482302    13.395907    13.717595     2.409462    1675.4896    2216.4723 
  962000    787.04781   -920.12428            0   -906.49194   -3708.3058    13.482302    13.395907    13.717595    2.5749812      1677.43     2214.519 
  963000    752.87907   -923.19369            0   -910.15318    -9040.214    13.482302    13.395907    13.717595    2.2069111    1679.3684     2212.563 
  964000    804.19489   -921.55437            0   -907.62502   -4490.4158    13.482302    13.395907    13.717595    2.3719516    1681.3099    2210.6111 
  965000    822.45269   -921.54183            0   -907.29625   -4114.4358    13.482302    13.395907    13.717595    2.2531218    1683.2471    2208.6537 
  966000    695.01523   -923.23797            0   -911.19971   -7101.5153    13.482302    13.395907    13.717595    1.9017481     1685.185    2206.6972 
  967000     741.0308   -921.57645            0   -908.74116   -6008.1008    13.482302    13.395907    13.717595    1.8872316    1687.1232    2204.7411 
  968000    875.10225    -922.1599            0   -907.00238   -4112.9553    13.482302    13.395907    13.717595    2.6626564    1689.0592    2202.7823 
  969000    836.07869   -923.24646            0   -908.76486   -8055.7941    13.482302    13.395907    13.717595    2.1632586    1690.9954    2200.8236 
  970000     807.7093   -922.96696            0   -908.97674   -7336.8792    13.482302    13.395907    13.717595    1.8922348    1692.9272    2198.8595 
  971000    833.08302   -921.35799            0   -906.92828   -7614.4611    13.482302    13.395907    13.717595    2.4751789     1694.864    2196.9018 
  972000    741.58742    -921.2974            0   -908.45247   -4105.2315    13.482302    13.395907    13.717595    1.8620126     1696.803    2194.9469 
  973000    694.81598   -923.60522            0   -911.57041   -7031.7206    13.482302    13.395907    13.717595    2.7233093    1698.7359    2192.9843 
  974000    875.13049   -923.36069            0   -908.20268   -6702.7416    13.482302    13.395907    13.717595    2.2122075    1700.6702    2191.0236 
  975000    918.33833   -922.61112            0   -906.70471   -3852.3056    13.482302    13.395907    13.717595    2.0317864    1702.6105    2189.0707 
  976000    775.83088   -922.39781            0   -908.95976   -6646.4561    13.482302    13.395907    13.717595    1.8189582    1704.5508    2187.1177 
  977000    766.24145   -921.90197            0   -908.63001   -8182.7733    13.482302    13.395907    13.717595    1.8255597    1706.4899    2185.1633 
  978000    899.27115   -922.58085            0    -907.0047   -7044.8683    13.482302    13.395907    13.717595    1.9863284    1708.4245     2183.203 
  979000    829.30849   -923.04495            0   -908.68061   -4528.8281    13.482302    13.395907    13.717595    1.8457709    1710.3604    2181.2446 
  980000     770.4942   -922.51942            0    -909.1738    -8659.289    13.482302    13.395907    13.717595    2.3114958     1712.302    2179.2935 
  981000    830.84156   -920.52922            0   -906.13833    -5083.231    13.482302    13.395907    13.717595    2.9962696    1714.2427    2177.3411 
  982000    754.64054   -922.24831            0   -909.17729   -4793.8061    13.482302    13.395907    13.717595     2.579721    1716.1846    2175.3905 
  983000    791.15087   -922.50106            0   -908.79764   -6678.3079    13.482302    13.395907    13.717595    1.8748338    1718.1228     2173.435 
  984000    853.91531   -921.92657            0   -907.13602    -6642.752    13.482302    13.395907    13.717595    2.0614707    1720.0583    2171.4764 
  985000    751.16535   -922.12483            0     -909.114   -5996.5762    13.482302    13.395907    13.717595    1.8343509    1721.9973     2169.522 
  986000    801.49015   -922.60168            0   -908.71918   -5720.5477    13.482302    13.395907    13.717595    2.4921957    1723.9353    2167.5665 
  987000    790.18558   -920.56989            0    -906.8832    -4838.885    13.482302    13.395907    13.717595    2.1969582    1725.8715    2165.6088 
  988000    810.19581   -922.53738            0   -908.50409   -7471.2059    13.482302    13.395907    13.717595    2.4201482    1727.8018    2163.6437 
  989000    716.29196   -923.80223            0   -911.39544   -8174.5345    13.482302    13.395907    13.717595    2.0228897    1729.7409    2161.6897 
  990000    829.11182    -922.2872            0   -907.92627    -7668.439    13.482302    13.395907    13.717595    2.3861037    1731.6799    2159.7356 
  991000    836.11121    -921.3018            0   -906.81964   -5618.4468    13.482302    13.395907    13.717595    1.9656192    1733.6195    2157.7824 
  992000    780.99644   -923.50315            0   -909.97562   -7714.3586    13.482302    13.395907    13.717595    2.0322123    1735.5583     2155.828 
  993000    743.13524   -920.60252            0   -907.73078   -5329.4406    13.482302    13.395907    13.717595    2.4533433    1737.4966    2153.8732 
  994000     860.4945   -922.47239            0   -907.56788   -5350.5306    13.482302    13.395907    13.717595    2.7493567    1739.4369    2151.9208 
  995000    782.43901   -922.89031            0   -909.33779   -7390.6727    13.482302    13.395907    13.717595    2.0662883    1741.3769    2149.9681 
  996000    775.43171   -922.79896            0   -909.36782    -8976.873    13.482302    13.395907    13.717595     2.110477    1743.3165     2148.015 
  997000    815.15057   -920.89678            0   -906.77767   -6558.5243    13.482302    13.395907    13.717595    2.4774968     1745.257    2146.0629 
  998000    844.28286   -924.05629            0   -909.43259   -7765.8229    13.482302    13.395907    13.717595    3.0761934     1747.197    2144.1104 
  999000    761.34809   -921.46241            0   -908.27521   -5417.1577    13.482302    13.395907    13.717595    2.6714947    1749.1349    2142.1552 
 1000000    789.53655   -920.77835            0   -907.10289   -3309.1407    13.482302    13.395907    13.717595    2.6718584    1751.0762    2140.2042 
 1001000    761.77521   -922.54087            0   -909.34627   -5799.6284    13.482302    13.395907    13.717595    2.1670078    1753.0162    2138.2518 
 1002000    868.63604   -920.89832            0    -905.8528   -2548.6838    13.482302    13.395907    13.717595    4.3633866    1754.9571    2136.3003 
 1003000    814.03041   -921.83069            0   -907.73099   -2747.6175    13.482302    13.395907    13.717595    2.5466392       1756.9    2134.3513 
 1004000    828.77052   -922.69092            0    -908.3359   -6364.8287    13.482302    13.395907    13.717595    2.0393257    1758.8364    2132.3946 
 1005000    831.96373   -922.06534            0   -907.65501   -4395.0096    13.482302    13.395907    13.717595    1.8821369      1760.77    2130.4344 
 1006000    842.58064   -922.36529            0   -907.77107   -6624.6445    13.482302    13.395907    13.717595    2.5197371     1762.707    2128.4784 
 1007000    813.98749   -922.46086            0   -908.36189   -5317.1683    13.482302    13.395907    13.717595    3.7394627     1764.645    2126.5237 
 1008000    758.98538   -920.90099            0   -907.75471   -5831.5823    13.482302    13.395907    13.717595    2.1687597    1766.6374    2124.6344 
 1009000    879.01732   -921.23862            0   -906.01328   -4781.9245    13.482302    13.395907    13.717595    2.1856453    1768.5829    2122.6886 
 1010000    687.97769   -921.47404            0   -909.55767   -8461.8029    13.482302    13.395907    13.717595    2.0652185    1770.5419     2120.759 
 1011000    806.86806   -921.47649            0   -907.50084    -4100.111    13.482302    13.395907    13.717595    2.2994517    1772.4831     2118.808 
 1012000    720.99456   -919.63735            0    -907.1491   -3150.9104    13.482302    13.395907    13.717595    2.0663695    1774.4345    2116.8692 
 1013000    797.79108   -922.06728            0   -908.24885   -8428.4598    13.482302    13.395907    13.717595    1.9768224    1776.3682    2114.9094 
 1014000    891.41591   -922.55985            0   -907.11976   -6441.7208    13.482302    13.395907    13.717595    3.6698432    1778.3107      2112.96 
 1015000    808.78505    -920.2988            0   -906.28995   -4882.1108    13.482302    13.395907    13.717595    3.3506319    1780.2422    2110.9975 
 1016000     742.4211   -922.00077            0    -909.1414    -3547.402    13.482302    13.395907    13.717595    2.3273455    1782.1938     2109.059 
 1017000    800.50437   -921.10806            0   -907.24264    -5927.709    13.482302    13.395907    13.717595    2.1632857     1784.146    2107.1212 
 1018000    811.56892   -922.30046            0   -908.24339    -6293.756    13.482302    13.395907    13.717595    2.7414133    1786.1071    2105.1938 
 1019000    754.03503   -922.63008            0   -909.56954   -6804.8914    13.482302    13.395907    13.717595    2.2108508    1788.0487    2103.2434 
 1020000    803.99764   -920.79894            0   -906.87301    -4086.626    13.482302    13.395907    13.717595     3.113772    1789.9827    2101.2841 
 1021000    742.52503   -921.73649            0   -908.87531   -6047.9186    13.482302    13.395907    13.717595    2.9927364    1791.9268    2099.3366 
 1022000    809.66176   -923.33481            0   -909.31077   -8026.3752    13.482302    13.395907    13.717595    2.0392032    1793.8687    2097.3866 
 1023000    827.88613   -921.91576            0   -907.57606   -5316.6362    13.482302    13.395907    13.717595    2.4143713    1795.8074    2095.4329 
 1024000     795.3278   -922.18093            0   -908.40517    -8117.309    13.482302    13.395907    13.717595    1.8678989    1797.7421    2093.4745 
 1025000    693.74778    -922.3317            0   -910.31539   -6933.5069    13.482302    13.395907    13.717595    1.8384561    1799.6844    2091.5251 
 1026000    845.26369   -921.61856            0   -906.97787   -3581.3231    13.482302    13.395907    13.717595    2.4904211    1801.6412    2089.5925 
 1027000    714.29614   -920.60356            0   -908.23133   -2804.6538    13.482302    13.395907    13.717595    2.2930608    1803.5752    2087.6334 
 1028000    662.66858   -922.02799            0      -910.55   -7316.2874    13.482302    13.395907    13.717595    1.9880162    1805.5323    2085.7011 
 1029000    844.41007   -921.31134            0   -906.68544   -6079.4201    13.482302    13.395907    13.717595    1.9717905    1807.4713    2083.7479 
 1030000     814.2181   -922.80719            0   -908.70423   -5389.2336    13.482302    13.395907    13.717595    1.8251717    1809.4182    2081.8037 
 1031000    883.61348   -924.03765            0    -908.7327    -7447.247    13.482302    13.395907    13.717595     1.966105     1811.356    2079.8491 
 1032000    821.88737   -920.69458            0   -906.45879   -2281.4555    13.482302    13.395907    13.717595    2.7453506    1813.3007    2077.9025 
 1033000     799.5287   -922.87775            0   -909.02922   -7945.8596    13.482302    13.395907    13.717595    2.4961632    1815.2341    2075.9429 
 1034000    834.54554   -920.23342            0   -905.77837   -6119.7131    13.482302    13.395907    13.717595    1.9997482    1817.1817    2073.9997 
 1035000     844.4428   -921.15096            0   -906.52449   -5058.1843    13.482302    13.395907    13.717595    1.8192391    1819.1274    2072.0542 
 1036000    774.27341   -922.27614            0   -908.86506    -5506.057    13.482302    13.395907    13.717595    2.1138691    1821.0597    2070.0935 
 1037000    856.81943   -920.75961            0   -905.91876    -4734.227    13.482302    13.395907    13.717595    2.2348421    1823.0074    2068.1504 
 1038000    904.51514   -922.49888            0    -906.8319   -6903.5574    13.482302    13.395907    13.717595    1.8980451    1824.9464    2066.1974 
 1039000    731.86843   -920.79644            0   -908.11985   -4714.2231    13.482302    13.395907    13.717595     2.443534    1826.9238    2064.2877 
 1040000    790.58789   -920.70593            0   -907.01227   -2435.1489    13.482302    13.395907    13.717595    2.1750178    1828.8674    2062.3398 
 1041000    905.08933   -921.46533            0   -905.78841     -5354.76    13.482302    13.395907    13.717595    2.0042512     1830.828    2060.4111 
 1042000    795.84257   -922.36322            0   -908.57854   -5451.9577    13.482302    13.395907    13.717595    2.3048211    1832.7675    2058.4586 
 1043000    788.63029   -920.31411            0   -906.65435   -6482.5688    13.482302    13.395907    13.717595    2.6193254    1834.7292    2056.5311 
 1044000    807.66022   -919.87189            0   -905.88252   -2318.5669    13.482302    13.395907    13.717595      2.29028    1836.6879       2054.6 
 1045000      828.066   -922.53664            0   -908.19383   -7454.0818    13.482302    13.395907    13.717595    1.6516347     1838.627     2052.647 
 1046000    764.17002   -920.19396            0   -906.95788   -5481.5203    13.482302    13.395907    13.717595    2.1150333    1840.5809    2050.7107 
 1047000    828.74417   -921.91656            0     -907.562   -6016.6387    13.482302    13.395907    13.717595    2.8493823    1842.5244    2048.7626 
 1048000    749.39552   -922.57346            0   -909.59329   -6570.4232    13.482302    13.395907    13.717595    1.6865605    1844.4636    2046.8099 
 1049000    837.24287   -920.72584            0   -906.22407    -4452.717    13.482302    13.395907    13.717595    1.8218981    1846.4035    2044.8578 
 1050000    735.28141   -920.67582            0   -907.94012   -3343.5564    13.482302    13.395907    13.717595    2.7951384    1848.3557    2042.9195 
 1051000    741.73328   -921.65793            0   -908.81047    -6577.395    13.482302    13.395907    13.717595    2.1703227    1850.2953    2040.9671 
 1052000    843.61493    -920.1957            0   -905.58357    -6012.313    13.482302    13.395907    13.717595    2.3169833    1852.2296    2039.0091 
 1053000    768.66291   -921.89002            0   -908.57611   -5411.1336    13.482302    13.395907    13.717595     2.475202    1854.1694     2037.057 
 1054000    783.84399   -921.33443            0   -907.75758    -6953.085    13.482302    13.395907    13.717595    1.8569281    1856.1076    2035.1033 
 1055000    881.26498   -919.11267            0   -903.84841   -4934.9614    13.482302    13.395907    13.717595    2.9441631    1858.0732    2033.1796 
 1056000    788.95499   -920.81844            0   -907.15306   -5003.8309    13.482302    13.395907    13.717595    2.1584674    1860.0153    2031.2301 
 1057000    768.25848    -922.3518            0    -909.0449   -5158.1347    13.482302    13.395907    13.717595    2.0560302    1861.9537    2029.2766 
 1058000    795.47333    -919.9778            0   -906.19952   -5147.0172    13.482302    13.395907    13.717595    2.0955464     1863.892     2027.323 
 1059000    792.90102    -921.0219            0   -907.28817   -4394.9059    13.482302    13.395907    13.717595    2.4075617    1865.8334    2025.3728 
 1060000    776.49382   -921.81303            0   -908.36349   -8254.9482    13.482302    13.395907    13.717595    1.7119685    1867.7689    2023.4163 
 1061000    910.44501   -922.63815            0   -906.86846   -5685.2442    13.482302    13.395907    13.717595    2.7247335     1869.709    2021.4647 
 1062000    866.14236   -919.82644            0   -904.82411   -4903.4625    13.482302    13.395907    13.717595    1.8548778    1871.6471    2019.5111 
 1063000    739.08498   -921.43653            0   -908.63494   -6956.5672    13.482302    13.395907    13.717595    2.1281461    1873.5863    2017.5587 
 1064000    813.34873   -921.60282            0   -907.51492   -8119.9162    13.482302    13.395907    13.717595    1.9960406    1875.5262     2015.607 
 1065000    851.23992   -920.13656            0   -905.39235   -4612.5258    13.482302    13.395907    13.717595    2.0926623    1877.4644    2013.6536 
 1066000    663.95569   -920.54846            0   -909.04818    -4477.584    13.482302    13.395907    13.717595    2.3401978    1879.4055    2011.7032 
 1067000    848.09642   -921.44633            0   -906.75657   -4748.7441    13.482302    13.395907    13.717595    2.7624066    1881.3461    2009.7524 
 1068000    741.00597    -921.2819            0   -908.44704   -5466.7623    13.482302    13.395907    13.717595    2.0830782    1883.2882    2007.8031 
 1069000    725.02672   -921.54826            0   -908.99018   -7667.2645    13.482302    13.395907    13.717595     1.960073    1885.2226    2005.8458 
 1070000    842.41604   -921.73938            0   -907.14801   -4634.3088    13.482302    13.395907    13.717595    2.3507935    1887.1644    2003.8962 
 1071000    773.83577   -921.49032            0   -908.08682    -3861.642    13.482302    13.395907    13.717595    2.3998168    1889.0965    2001.9364 
 1072000    794.00215   -921.76464            0   -908.01184   -3210.7903    13.482302    13.395907    13.717595    2.0901724    1891.0326     1999.981 
 1073000    812.56733   -921.78495            0   -907.71059    -7264.082    13.482302    13.395907    13.717595    1.9737095    1892.9757    1998.0329 
 1074000     785.1335   -921.14789            0    -907.5487   -6035.7431    13.482302    13.395907    13.717595    2.1609138    1894.9156    1996.0815 
 1075000    781.84892   -921.82676            0   -908.28447   -4669.4507    13.482302    13.395907    13.717595    1.8976689    1896.8593    1994.1342 
 1076000    765.20399   -922.03051            0   -908.77652   -5178.4523    13.482302    13.395907    13.717595    2.1751813    1898.7975     1992.181 
 1077000    926.09553   -921.89522            0   -905.85445   -3596.4431    13.482302    13.395907    13.717595    2.1039484    1900.7404    1990.2328 
 1078000    702.82541   -921.45844            0    -909.2849   -3857.0559    13.482302    13.395907    13.717595    2.2051643    1902.6807    1988.2818 
 1079000    753.50704   -921.18093            0   -908.12954   -5352.7993    13.482302    13.395907    13.717595    2.0565578    1904.6175    1986.3273 
 1080000    820.30018   -920.71115            0   -906.50284   -6312.8153    13.482302    13.395907    13.717595    2.4970417    1906.5603     1984.379 
 1081000    666.65053   -921.78385            0   -910.23689   -7220.1341    13.482302    13.395907    13.717595    2.1735522    1908.4998    1982.4274 
 1082000    866.03181   -922.30274            0   -907.30232   -6662.3016    13.482302    13.395907    13.717595    2.0279803    1910.4456    1980.4824 
 1083000    774.90085   -920.87787            0   -907.45592   -3265.8443    13.482302    13.395907    13.717595    2.2494735    1912.3824    1978.5278 
 1084000    725.76182    -923.7257            0   -911.15488   -8253.8768    13.482302    13.395907    13.717595    1.8827726    1914.3191    1976.5734 
 1085000    707.80086    -921.3219            0   -909.06218   -3932.2883    13.482302    13.395907    13.717595    1.8273561    1916.2584    1974.6216 
 1086000    860.36137   -921.74766            0   -906.84546   -4585.7845    13.482302    13.395907    13.717595    2.5158479    1918.2108    1972.6833 
 1087000    805.79257   -923.40138            0   -909.44436   -6825.5616    13.482302    13.395907    13.717595    2.0400509    1920.1606    1970.7424 
 1088000    709.37972   -921.06611            0   -908.77905   -5042.3589    13.482302    13.395907    13.717595    1.8176623    1922.1004    1968.7911 
 1089000    841.07945   -922.08003            0   -907.51181   -5390.4477    13.482302    13.395907    13.717595    2.0251412    1924.0482    1966.8481 
 1090000    744.25776   -921.70605            0   -908.81486   -3949.3925    13.482302    13.395907    13.717595    2.2946697     1925.987    1964.8958 
 1091000     694.5368   -922.42142            0   -910.39145   -8068.7604    13.482302    13.395907    13.717595    2.1770236    1927.9253    1962.9432 
 1092000    734.03281   -919.79554            0   -907.08146   -4328.9876    13.482302    13.395907    13.717595    2.7883277    1929.8639    1960.9908 
 1093000    813.54128   -922.32122            0   -908.22998   -5372.6291    13.482302    13.395907    13.717595    2.3449286    1931.8215    1959.0576 
 1094000    717.62457    -922.5815            0   -910.15163   -8140.4758    13.482302    13.395907    13.717595    1.8517704    1933.7592    1957.1044 
 1095000    831.10214   -920.90446            0   -906.50906     -5429.64    13.482302    13.395907    13.717595    2.4406396    1935.6954    1955.1496 
 1096000    752.86969   -921.83405            0    -908.7937   -5906.2579    13.482302    13.395907    13.717595     2.907918    1937.6351    1953.1985 
 1097000    928.94423   -924.08976            0   -907.99965   -7226.2711    13.482302    13.395907    13.717595    1.8420617     1939.574    1951.2464 
 1098000    778.82597   -919.94091            0   -906.45097   -6048.2844    13.482302    13.395907    13.717595    2.6036466    1941.5367    1949.3184 
 1099000     794.9747     -922.735            0   -908.96535   -6816.0355    13.482302    13.395907    13.717595    2.3454345    1943.4762     1947.367 
 1100000    724.22756   -920.51227            0   -907.96803    -5199.979    13.482302    13.395907    13.717595    2.2058371    1945.4304    1945.4304 
 1101000    804.25885   -921.65399            0   -907.72353   -5980.9415    13.482302    13.395907    13.717595     2.312627    1947.3657    1943.4749 
 1102000    744.21119   -922.17167            0    -909.2813   -8019.4273    13.482302    13.395907    13.717595    2.0008447    1949.3049    1941.5233 
 1103000    764.94915   -921.85165            0   -908.60207   -4892.5919    13.482302    13.395907    13.717595      2.15628    1951.2404     1939.568 
 1104000    898.95584    -922.2706            0   -906.69992   -6467.8203    13.482302    13.395907    13.717595    1.8146805     1953.186    1937.6228 
 1105000    800.83475   -923.11993            0   -909.24879   -6815.2233    13.482302    13.395907    13.717595    2.4632372    1955.1183    1935.6644 
 1106000    640.64749    -923.0622            0   -911.96564   -8624.7404    13.482302    13.395907    13.717595    2.8042464    1957.0565    1933.7119 
 1107000    819.44465   -922.94922            0   -908.75573   -5176.6319    13.482302    13.395907    13.717595    2.5420291    1958.9903    1931.7551 
 1108000    913.41761   -922.48696            0   -906.66578   -6475.5024    13.482302    13.395907    13.717595    2.3636141    1960.9268     1929.801 
 1109000      760.729    -922.8959            0   -909.71942   -7181.5047    13.482302    13.395907    13.717595    2.1469032    1962.8618    1927.8454 
 1110000    805.40908   -922.32102            0   -908.37064   -7229.7171    13.482302    13.395907    13.717595    2.6776635    1964.7991    1925.8922 
 1111000    837.89306   -922.21194            0   -907.69891   -6819.1731    13.482302    13.395907    13.717595    1.3676901    1966.7506    1923.9529 
 1112000    828.33724   -921.53283            0   -907.18532   -6339.4856    13.482302    13.395907    13.717595     1.960322    1968.6941    1922.0057 
 1113000    801.63693   -921.93893            0   -908.05389   -7130.0984    13.482302    13.395907    13.717595    2.7545129    1970.6338    1920.0548 
 1114000    773.70687   -922.78044            0   -909.37917   -8065.6774    13.482302    13.395907    13.717595    2.4757211    1972.5711    1918.1017 
 1115000    891.34638   -921.48101            0   -906.04212   -3640.7416    13.482302    13.395907    13.717595    2.3112921    1974.5037     1916.144 
 1116000    805.44819   -922.28433            0   -908.33328      -5869.3    13.482302    13.395907    13.717595    1.9842117    1976.4375    1914.1875 
 1117000    782.83759   -921.86124            0   -908.30182   -4987.4417    13.482302    13.395907    13.717595    2.2229652    1978.3767    1912.2363 
 1118000    812.57151   -921.92227            0   -907.84784   -7023.9853    13.482302    13.395907    13.717595    2.3072554    1980.3453    1910.3134 
 1119000    739.70867   -920.52399            0    -907.7116   -3399.9505    13.482302    13.395907    13.717595    2.3866787     1982.284    1908.3617 
 1120000    775.52803   -921.65603            0   -908.22322   -6052.0632    13.482302    13.395907    13.717595    2.6920623     1984.226    1906.4132 
 1121000    799.75094   -921.77021            0   -907.91784   -6057.1061    13.482302    13.395907    13.717595    1.9291011    1986.1663    1904.4631 
 1122000     844.8024   -920.18996            0   -905.55726    -2801.705    13.482302    13.395907    13.717595    3.0953641    1988.1056    1902.5121 
 1123000    751.35944   -922.29752            0   -909.28333   -9162.9029    13.482302    13.395907    13.717595    1.5812489    1990.0555    1900.5711 
 1124000    757.09538   -920.43803            0   -907.32449   -2791.2725    13.482302    13.395907    13.717595    2.6890274     1991.995    1898.6203 
 1125000    857.38156   -922.46674            0   -907.61616   -4964.8912    13.482302    13.395907    13.717595    2.0813654    1993.9351      1896.67 
 1126000    768.14326   -922.98783            0   -909.68293   -6640.4994    13.482302    13.395907    13.717595    2.2289723    1995.8728    1894.7175 
 1127000    823.28511   -921.10168            0   -906.84168   -4025.3776    13.482302    13.395907    13.717595    2.4236515    1997.8111    1892.7655 
 1128000    760.25373   -921.87212            0   -908.70387   -5402.6043    13.482302    13.395907    13.717595    2.4833627    1999.7515    1890.8157 
 1129000    773.27901   -923.08354            0   -909.68968   -5389.0851    13.482302    13.395907    13.717595    1.7476152    2001.6923    1888.8662 
 1130000    866.89587   -922.75962            0   -907.74424   -4955.3818    13.482302    13.395907    13.717595    1.5507656    2003.6288    1886.9126 
 1131000    817.61838   -921.61007            0   -907.44821     -5604.88    13.482302    13.395907    13.717595    2.5316861     2005.563    1884.9569 
 1132000    803.61562   -922.91341            0    -908.9941   -7040.6991    13.482302    13.395907    13.717595    2.3121355    2007.4959    1883.0001 
 1133000    767.67014   -921.08714            0   -907.79043   -6178.1818    13.482302    13.395907    13.717595     2.601726    2009.4311    1881.0454 
 1134000     803.6687   -920.37192            0   -906.45169   -3172.3441    13.482302    13.395907    13.717595    2.3955906    2011.3698    1879.0941 
 1135000     785.6849   -921.89441            0   -908.28567   -5091.6652    13.482302    13.395907    13.717595    2.2037382    2013.3024     1877.137 
 1136000    816.39039   -921.72828            0    -907.5877   -6626.8858    13.482302    13.395907    13.717595    1.8748092    2015.2409    1875.1856 
 1137000    888.63703    -920.9878            0   -905.59584   -5847.5742    13.482302    13.395907    13.717595     2.112253    2017.1734    1873.2285 
 1138000    764.67252   -921.77356            0   -908.52877   -6194.4667    13.482302    13.395907    13.717595     1.927086    2019.1111    1871.2764 
 1139000    874.36313   -923.50352            0    -908.3588   -6842.0478    13.482302    13.395907    13.717595    2.2081409     2021.043    1869.3189 
 1140000    776.16268   -918.39251            0    -904.9487    -4998.173    13.482302    13.395907    13.717595    2.7523722    2022.9753    1867.3618 
 1141000    815.75268   -921.38186            0   -907.25232   -5445.2866    13.482302    13.395907    13.717595    2.7505902    2024.9176     1865.414 
 1142000     820.2821    -922.7051            0   -908.49711   -5992.6757    13.482302    13.395907    13.717595    2.4899642    2026.8542    1863.4609 
 1143000    777.13374   -920.65597            0   -907.19534   -5240.0521    13.482302    13.395907    13.717595    2.3889567    2028.7853    1861.5029 
 1144000    882.99013   -921.54604            0   -906.25189   -4767.1163    13.482302    13.395907    13.717595    2.4958499    2030.7221    1859.5501 
 1145000    797.92048   -922.92504            0   -909.10437   -6934.4337    13.482302    13.395907    13.717595    1.9614419    2032.6581    1857.5966 
 1146000    935.24342    -922.7988            0   -906.59958    -4788.962    13.482302    13.395907    13.717595     1.738165    2034.6412    1855.6861 
 1147000    716.87775   -921.91704            0    -909.5001   -5702.0121    13.482302    13.395907    13.717595    2.4768344     2036.575    1853.7307 
 1148000    765.27086   -921.71773            0   -908.46258   -6029.5657    13.482302    13.395907    13.717595    2.4653295    2038.5086     1851.775 
 1149000     851.5061   -921.82723            0   -907.07841   -6320.8833    13.482302    13.395907    13.717595    2.9073895    2040.4467    1849.8235 
 1150000    737.72452   -923.62359            0   -910.84557   -7186.7562    13.482302    13.395907    13.717595    2.0217989     2042.385    1847.8721 
 1151000    778.11119   -923.55818            0   -910.08062    -6045.676    13.482302    13.395907    13.717595    2.0502312    2044.3228    1845.9204 
 1152000     815.8628   -921.02627            0   -906.89483   -4929.5672    13.482302    13.395907    13.717595    2.0200783    2046.2546    1843.9632 
 1153000    785.27437   -921.40241            0   -907.80079   -7760.6454    13.482302    13.395907    13.717595    2.1946151    2048.1887    1842.0082 
 1154000     700.0359   -921.62732            0   -909.50209   -4680.9067    13.482302    13.395907    13.717595    2.0988054    2050.1288    1840.0587 
 1155000    803.22936   -921.78816            0   -907.87554   -4850.5307    13.482302    13.395907    13.717595     2.063056    2052.0678    1838.1081 
 1156000     854.4102   -922.23335            0   -907.43423   -6971.2793    13.482302    13.395907    13.717595    1.9405963    2054.0081    1836.1588 
 1157000    734.89367   -922.58327            0   -909.85428   -5471.0848    13.482302    13.395907    13.717595    2.0834234    2055.9399    1834.2018 
 1158000    814.95538   -921.31686            0   -907.20113     -6401.58    13.482302    13.395907    13.717595    2.3513702    2057.8798    1832.2521 
 1159000    830.21745    -921.4736            0   -907.09352   -6052.7621    13.482302    13.395907    13.717595    2.7050123     2059.818     1830.301 
 1160000    706.83658   -922.18238            0   -909.93936   -7101.1499    13.482302    13.395907    13.717595    2.1232012    2061.7553     1828.349 
 1161000    706.29021   -923.32277            0   -911.08922   -8227.8457    13.482302    13.395907    13.717595    1.8362297    2063.6854    1826.3907 
 1162000    802.86083   -921.89734            0    -907.9911   -4226.9055    13.482302    13.395907    13.717595    2.4320022    2065.6233    1824.4394 
 1163000    809.28752   -920.66121            0   -906.64366   -4322.3144    13.482302    13.395907    13.717595    2.4422262    2067.5607    1822.4877 
 1164000    735.65309   -922.76043            0   -910.01829   -5962.5661    13.482302    13.395907    13.717595    2.4934618    2069.5013    1820.5387 
 1165000    864.72229    -923.1946            0   -908.21687   -6116.1791    13.482302    13.395907    13.717595    2.0316584    2071.4428    1818.5906 
 1166000    800.19946   -921.22491            0   -907.36477   -7045.6667    13.482302    13.395907    13.717595    2.1845545    2073.3803     1816.639 
 1167000    714.44142   -921.50512            0   -909.13038   -7140.9167    13.482302    13.395907    13.717595    1.7803451    2075.3215    1814.6907 
 1168000    772.21077   -922.16866            0   -908.79331   -8903.2556    13.482302    13.395907    13.717595    2.0011461    2077.2582    1812.7384 
 1169000    813.78995   -920.93514            0    -906.8396   -5837.0561    13.482302    13.395907    13.717595    2.0660463    2079.1971    1810.7881 
 1170000    793.77641   -922.57631            0   -908.82742   -6045.3974    13.482302    13.395907    13.717595    2.0512109     2081.136    1808.8378 
 1171000    740.39044   -922.36768            0   -909.54348   -10115.924    13.482302    13.395907    13.717595    2.3315979      2083.07    1806.8833 
 1172000    838.33446   -920.90193            0   -906.38126   -5909.1918    13.482302    13.395907    13.717595    2.3853708    2085.0052    1804.9299 
 1173000    775.65037    -921.6334            0   -908.19847   -5476.8335    13.482302    13.395907    13.717595    2.2652679    2086.9407    1802.9767 
 1174000    770.18788   -922.40801            0   -909.06769   -3992.7954    13.482302    13.395907    13.717595    1.8982848     2088.875    1801.0226 
 1175000    773.49252   -921.26679            0   -907.86924   -8092.8554    13.482302    13.395907    13.717595    1.7420893    2090.8087     1799.068 
 1176000      818.547   -921.48295            0   -907.30501   -5127.6018    13.482302    13.395907    13.717595    2.1647364     2092.747    1797.1173 
 1177000    777.13813   -920.83475            0   -907.37405   -3064.8678    13.482302    13.395907    13.717595    2.9206257    2094.6854    1795.1668 
 1178000    659.25891   -921.09083            0    -909.6719   -5035.7522    13.482302    13.395907    13.717595    2.5266816    2096.6221    1793.2148 
 1179000    823.54905   -920.59505            0   -906.33047   -6816.6455    13.482302    13.395907    13.717595    2.2891165    2098.5599    1791.2638 
 1180000    771.11857   -920.92603            0   -907.56959   -6832.1863    13.482302    13.395907    13.717595    2.2727771    2100.5006    1789.3153 
 1181000    786.32663   -922.63584            0   -909.01598   -6239.2796    13.482302    13.395907    13.717595    1.5542077    2102.4414    1787.3669 
 1182000    956.89738   -921.22743            0   -904.65315    -4158.224    13.482302    13.395907    13.717595    2.1266731    2104.3819    1785.4183 
 1183000    785.02101   -921.85345            0   -908.25621   -6107.3384    13.482302    13.395907    13.717595    2.0840769    2106.3206    1783.4682 
 1184000    765.60173   -921.70963            0   -908.44875   -6088.6852    13.482302    13.395907    13.717595    2.8349936    2108.2565    1781.5156 
 1185000    913.20703   -921.13992            0   -905.32239   -4371.2073    13.482302    13.395907    13.717595    2.1037702    2110.1892    1779.5605 
 1186000    837.04129   -922.20796            0   -907.70969   -5960.0617    13.482302    13.395907    13.717595    3.2411542    2112.1275      1777.61 
 1187000    740.61517   -920.99188            0   -908.16379   -4131.6664    13.482302    13.395907    13.717595      1.87729    2114.0673    1775.6609 
 1188000    768.90132   -920.70712            0   -907.38909   -6749.2718    13.482302    13.395907    13.717595    2.2668015    2116.0056    1773.7105 
 1189000    936.08289    -922.6807            0   -906.46694   -7463.4354    13.482302    13.395907    13.717595    2.1875105    2117.9469    1771.7627 
 1190000    761.02041   -922.72491            0   -909.54338   -5660.7917    13.482302    13.395907    13.717595    2.1018023    2119.8873    1769.8142 
 1191000    800.42145   -921.36747            0   -907.50349   -4521.0105    13.482302    13.395907    13.717595    1.6872936    2121.8256    1767.8639 
 1192000    843.62341   -922.23429            0   -907.62201   -5651.5378    13.482302    13.395907    13.717595    2.0564148    2123.7632     1765.913 
 1193000    802.54083   -922.49635            0   -908.59566   -8519.2967    13.482302    13.395907    13.717595    2.4102559    2125.7012    1763.9624 
 1194000    777.90218   -920.74102            0   -907.26708   -5408.1161    13.482302    13.395907    13.717595    1.8498268    2127.6427    1762.0149 
 1195000    840.48502   -921.13582            0    -906.5779   -4900.9606    13.482302    13.395907    13.717595    2.1529097    2129.5796    1760.0635 
 1196000    765.75917   -922.63199            0   -909.36838   -7928.2665    13.482302    13.395907    13.717595     2.185383    2131.5183    1758.1137 
 1197000    826.23787   -921.52148            0   -907.21033   -5643.1098    13.482302    13.395907    13.717595    2.5105787    2133.5206    1756.2161 
 1198000    760.04003   -920.56415            0    -907.3996   -5447.8545    13.482302    13.395907    13.717595    2.7704964    2135.4615     1754.268 
 1199000     753.3288   -920.88145            0   -907.83315   -6041.3001    13.482302    13.395907    13.717595    2.5548597    2137.4215    1752.3356 
 1200000    766.77564   -921.52079            0   -908.23957   -3971.5264    13.482302    13.395907    13.717595    3.3694508    2139.3609    1750.3862 
 1201000    801.34497   -921.24392            0   -907.36394   -4009.5961    13.482302    13.395907    13.717595    2.3377438    2141.3108    1748.4454 
 1202000    885.51649   -921.75552            0   -906.41761   -4838.2681    13.482302    13.395907    13.717595    2.4703785    2143.2552    1746.5002 
 1203000    750.29772   -922.56725            0   -909.57145    -5614.048    13.482302    13.395907    13.717595    2.4484441    2145.1918    1744.5485 
 1204000    837.50645   -921.51246            0   -907.00613   -5980.8784    13.482302    13.395907    13.717595    1.8996402    2147.1431    1742.6089 
 1205000    754.58614   -920.43075            0   -907.36067   -4063.4957    13.482302    13.395907    13.717595    2.3796915    2149.0812    1740.6585 
 1206000    760.00557   -922.32675            0    -909.1628   -6581.9875    13.482302    13.395907    13.717595    2.1145831    2151.0294    1738.7163 
 1207000    757.38485   -922.62168            0   -909.50313   -7103.0874    13.482302    13.395907    13.717595    2.4262399    2152.9714    1736.7692 
 1208000    841.42879   -921.09142            0   -906.51715   -5821.8678    13.482302    13.395907    13.717595    2.1573047    2154.9158    1734.8239 
 1209000    784.25642   -922.85994            0   -909.27594   -6122.8603    13.482302    13.395907    13.717595    2.5227419     2156.859    1732.8777 
 1210000    834.58435   -922.16832            0   -907.71261   -7400.6901    13.482302    13.395907    13.717595    2.4013928    2158.8072    1730.9355 
 1211000    799.61497   -920.98494            0   -907.13493   -6154.8593    13.482302    13.395907    13.717595    2.4068113    2160.7588     1728.996 
 1212000    718.22126   -921.87503            0   -909.43483   -6074.9154    13.482302    13.395907    13.717595    1.7447058    2162.6997     1727.048 
 1213000    813.54064   -920.13533            0   -906.04411   -2249.6761    13.482302    13.395907    13.717595    2.4817617    2164.6535    1725.1102 
 1214000    809.03189   -921.41014            0   -907.39701    -5314.919    13.482302    13.395907    13.717595    3.0657527    2166.5954    1723.1629 
 1215000    779.78392   -921.83309            0   -908.32656   -5869.3569    13.482302    13.395907    13.717595    2.1197795    2168.5411    1721.2187 
 1216000     798.7531   -921.55278            0   -907.71769   -5904.5253    13.482302    13.395907    13.717595     3.413412    2170.4722    1719.2629 
 1217000    756.70236   -920.76647            0   -907.65973   -2572.8035    13.482302    13.395907    13.717595    2.4642753    2172.4227    1717.3225 
 1218000    859.30619   -923.11176            0   -908.22784   -6838.1157    13.482302    13.395907    13.717595    2.2899546    2174.3605     1715.372 
 1219000     727.9134   -921.53188            0    -908.9238   -4950.4656    13.482302    13.395907    13.717595    2.0973983     2176.304    1713.4261 
 1220000    825.74202   -920.31498            0   -906.01242   -2228.7841    13.482302    13.395907    13.717595    2.1406194    2178.2652    1711.4941 
 1221000    758.73204   -922.40373            0   -909.26184    -4980.675    13.482302    13.395907    13.717595    2.5976807    2180.2002    1709.5415 
 1222000    750.22556   -921.45537            0   -908.46082   -7051.9204    13.482302    13.395907    13.717595    2.2382992    2182.1542    1707.6037 
 1223000    810.13629   -920.87802            0   -906.84576   -4419.6519    13.482302    13.395907    13.717595    1.6980006    2184.0881    1705.6503 
 1224000    724.73188   -923.10163            0   -910.54865   -7216.2401    13.482302    13.395907    13.717595    1.8024036    2186.0474    1703.7166 
 1225000    823.84057   -922.09567            0   -907.82604   -4469.5177    13.482302    13.395907    13.717595    2.1291323    2187.9824    1701.7641 
 1226000    860.00316   -922.14875            0   -907.25276   -5715.9036    13.482302    13.395907    13.717595    2.4419962    2189.9368    1699.8266 
 1227000    750.83313    -923.3431            0   -910.33802   -6682.3174    13.482302    13.395907    13.717595    2.2679599     2191.887    1697.8859 
 1228000    780.07858   -921.41648            0   -907.90485   -4932.5378    13.482302    13.395907    13.717595    2.3677989    2193.8188    1695.9308 
 1229000    803.72089   -921.39167            0   -907.47054   -5230.8672    13.482302    13.395907    13.717595    2.8269833    2195.8039     1694.017 
 1230000    716.40444   -921.32232            0   -908.91358    -4770.187    13.482302    13.395907    13.717595    2.7238435    2197.7495    1692.0727 
 1231000     847.1185   -923.68491            0   -909.01209   -8453.8851    13.482302    13.395907    13.717595    2.0867679    2199.6922     1690.126 
 1232000    806.92434   -920.57466            0   -906.59804   -5750.2446    13.482302    13.395907    13.717595    2.2534978     2201.634    1688.1787 
 1233000    713.84098   -921.30388            0   -908.93954   -7292.2618    13.482302    13.395907    13.717595     2.934689    2203.6012    1686.2509 
 1234000    665.80839   -923.75667            0    -912.2243   -7865.8957    13.482302    13.395907    13.717595    1.9173334    2205.5451    1684.3052 
 1235000    781.01909   -922.30522            0    -908.7773   -6923.5996    13.482302    13.395907    13.717595    2.1578797    2207.4907    1682.3607 
 1236000     832.7381   -920.84745            0   -906.42372   -4745.1647    13.482302    13.395907    13.717595    2.2166894    2209.4331    1680.4139 
 1237000    764.14232   -922.21878            0   -908.98318   -5467.1064    13.482302    13.395907    13.717595    2.1798641    2211.3734    1678.4654 
 1238000    742.75494   -921.53039            0   -908.66524   -6216.1831    13.482302    13.395907    13.717595    1.9412345    2213.3149     1676.518 
 1239000    816.81687   -921.56768            0   -907.41971   -5894.3066    13.482302    13.395907    13.717595    2.4191063    2215.2545     1674.569 
 1240000    765.21497   -921.27748            0    -908.0233   -5474.9324    13.482302    13.395907    13.717595    1.8466816    2217.1923    1672.6187 
 1241000    578.61077   -920.53034            0    -910.5083   -7565.5088    13.482302    13.395907    13.717595    3.3378065    2219.1259    1670.6654 
 1242000    829.59152   -921.62379            0   -907.25455   -6393.7574    13.482302    13.395907    13.717595    2.3886674    2221.0777    1668.7256 
 1243000    798.40825   -921.68784            0   -907.85872   -6643.0048    13.482302    13.395907    13.717595    1.8449659    2223.0189    1666.7779 
 1244000    679.29155    -922.6263            0   -910.86039   -7256.5156    13.482302    13.395907    13.717595    2.3592045    2224.9778    1664.8435 
 1245000    827.27423   -921.62588            0   -907.29678   -6202.3462    13.482302    13.395907    13.717595    2.3539909    2226.9297    1662.9039 
 1246000    750.37345   -920.98266            0   -907.98555   -5790.4639    13.482302    13.395907    13.717595    2.9550033    2228.8624    1660.9498 
 1247000    789.26201   -922.71939            0    -909.0487   -6061.5024    13.482302    13.395907    13.717595    2.2564649    2230.7983    1658.9982 
 1248000    870.27062    -921.1556            0   -906.08177   -5479.0718    13.482302    13.395907    13.717595    2.0493556    2232.7394    1657.0505 
 1249000    739.09152   -921.47403            0   -908.67233   -8194.4668    13.482302    13.395907    13.717595    1.9434259    2234.6792    1655.1018 
 1250000    750.88609   -921.60213            0   -908.59613   -6767.7827    13.482302    13.395907    13.717595    2.4405487    2236.6189    1653.1531 
 1251000    794.01869   -920.22934            0   -906.47626   -5368.7438    13.482302    13.395907    13.717595    4.5133319     2238.567    1651.2106 
 1252000    762.86955   -921.83919            0   -908.62564   -6865.2782    13.482302    13.395907    13.717595    2.6173498    2240.5069    1649.2621 
 1253000    766.60744   -922.07777            0   -908.79947   -6894.0502    13.482302    13.395907    13.717595    2.0512887    2242.4476    1647.3141 
 1254000    762.73836   -919.67209            0   -906.46081   -2460.2522    13.482302    13.395907    13.717595    2.3468969    2244.3889    1645.3666 
 1255000    777.78155    -921.1606            0   -907.68876     -5818.91    13.482302    13.395907    13.717595    2.8505585    2246.3225    1643.4134 
 1256000    721.64305    -920.4083            0   -907.90882   -6730.4047    13.482302    13.395907    13.717595    3.0870785    2248.2583     1641.462 
 1257000    903.39331    -920.5331            0   -904.88555   -3559.0633    13.482302    13.395907    13.717595    2.1818736    2250.2007    1639.5153 
 1258000    844.20309   -921.58688            0   -906.96456    -5438.774    13.482302    13.395907    13.717595    1.9104451    2252.1435    1637.5689 
 1259000    788.37142   -922.00227            0     -908.347   -5643.9333    13.482302    13.395907    13.717595    3.0116408    2254.0852    1635.6218 
 1260000    801.13728   -921.02989            0    -907.1535   -5156.4604    13.482302    13.395907    13.717595    2.1943231    2256.0259    1633.6739 
 1261000    866.03955   -921.07478            0   -906.07423    -1653.887    13.482302    13.395907    13.717595    2.8328009    2257.9655    1631.7253 
 1262000     781.3586   -922.53363            0   -908.99983   -7484.5907    13.482302    13.395907    13.717595    2.7165729    2259.9033    1629.7754 
 1263000    822.51722   -920.95466            0   -906.70796   -5584.7098    13.482302    13.395907    13.717595    2.1494287    2261.8393    1627.8242 
 1264000     835.5641   -921.65735            0   -907.18466   -5681.6944    13.482302    13.395907    13.717595    2.1692994    2263.7717    1625.8704 
 1265000    777.20257   -922.85587            0   -909.39406   -8125.5219    13.482302    13.395907    13.717595    1.7383991      2265.71    1623.9209 
 1266000    896.26685   -921.91479            0   -906.39068   -5905.8342    13.482302    13.395907    13.717595    2.2207114    2267.6441    1621.9684 
 1267000    832.72823   -921.99094            0   -907.56737   -3726.4417    13.482302    13.395907    13.717595    1.9034948    2269.5834    1620.0197 
 1268000     788.2733   -921.56271            0   -907.90914   -7359.6175    13.482302    13.395907    13.717595    2.0918336    2271.5227     1618.071 
 1269000    853.07453   -921.45016            0   -906.67418   -4886.8603    13.482302    13.395907    13.717595    2.1508772    2273.4619    1616.1222 
 1270000    824.97606   -921.11191            0   -906.82261   -6349.8633    13.482302    13.395907    13.717595    2.3770299     2275.404    1614.1755 
 1271000    761.24588   -922.21425            0   -909.02882   -6221.4641    13.482302    13.395907    13.717595    2.5911031    2277.3415    1612.2255 
 1272000    835.11763   -921.00889            0   -906.54393   -5566.1583    13.482302    13.395907    13.717595    2.1604287    2279.2818    1610.2776 
 1273000    736.59738    -920.7254            0    -907.9669   -4355.5598    13.482302    13.395907    13.717595    1.9633659    2281.2179    1608.3267 
 1274000    794.90776   -923.10031            0   -909.33182   -7057.7003    13.482302    13.395907    13.717595    1.9508418    2283.1607    1606.3805 
 1275000    858.64168   -921.34707            0   -906.47466   -2770.6361    13.482302    13.395907    13.717595     2.137825    2285.0977    1604.4303 
 1276000     782.6845    -923.0183            0   -909.46153   -7500.3513    13.482302    13.395907    13.717595    2.0805097    2287.0331     1602.479 
 1277000    711.32669   -921.62629            0    -909.3055   -7443.7955    13.482302    13.395907    13.717595    2.2763001    2288.9726    1600.5306 
 1278000    855.00907   -921.83397            0   -907.02448   -3779.1276    13.482302    13.395907    13.717595    2.4336692    2290.9112    1598.5815 
 1279000    730.47186   -922.06239            0   -909.40999   -7389.0679    13.482302    13.395907    13.717595    2.1079056    2292.8501    1596.6327 
 1280000    780.96266   -922.71389            0   -909.18695   -7466.3237    13.482302    13.395907    13.717595    2.7204777    2294.7866    1594.6822 
 1281000     770.8166   -920.78144            0   -907.43024   -6536.8781    13.482302    13.395907    13.717595    1.9312124    2296.7208    1592.7302 
 1282000    881.80318   -922.89609            0    -907.6225   -6088.2859    13.482302    13.395907    13.717595    2.0368951    2298.6578    1590.7801 
 1283000    753.49055   -923.20572            0   -910.15462   -8475.2808    13.482302    13.395907    13.717595    1.8552458    2300.5956    1588.8306 
 1284000    815.92558   -921.03133            0    -906.8988   -5441.7853    13.482302    13.395907    13.717595    2.1532212    2302.5279    1586.8773 
 1285000    772.75711   -921.17006            0   -907.78524   -3900.7545    13.482302    13.395907    13.717595    2.3375363    2304.4617    1584.9251 
 1286000    726.15141   -923.70774            0   -911.13018   -8649.9311    13.482302    13.395907    13.717595    1.9247188    2306.4006    1582.9765 
 1287000     796.2113    -922.3274            0   -908.53633   -5363.4969    13.482302    13.395907    13.717595    2.8679909    2308.3408    1581.0287 
 1288000    856.41722   -921.67891            0   -906.84503   -6088.8337    13.482302    13.395907    13.717595    1.9597904    2310.2779    1579.0788 
 1289000    775.33709   -922.65663            0   -909.22712   -6180.1364    13.482302    13.395907    13.717595    2.1632419    2312.2161    1577.1298 
 1290000    769.40728   -921.04002            0   -907.71323   -6996.4868    13.482302    13.395907    13.717595    2.0808039    2314.1562    1575.1819 
 1291000    794.76379   -920.78082            0   -907.01482   -2576.6432    13.482302    13.395907    13.717595    2.5773588    2316.0966    1573.2344 
 1292000    816.35901   -923.36194            0    -909.2219   -6878.1522    13.482302    13.395907    13.717595    2.1361694    2318.0306    1571.2825 
 1293000    855.27059   -920.26061            0   -905.44659   -4193.2407    13.482302    13.395907    13.717595    2.2447617    2319.9643    1569.3304 
 1294000    731.08708   -920.49611            0   -907.83306   -4325.6506    13.482302    13.395907    13.717595    2.5475011    2321.8961    1567.3771 
 1295000     759.5703   -921.61688            0   -908.46047   -6576.5484    13.482302    13.395907    13.717595    2.6201916    2323.8311     1565.426 
 1296000     888.5652    -919.8785            0   -904.48779   -3724.6316    13.482302    13.395907    13.717595    3.3956329    2325.7695    1563.4772 
 1297000    827.38109   -920.73513            0   -906.40418   -5451.9079    13.482302    13.395907    13.717595    2.9987068    2327.7057    1561.5269 
 1298000    869.21822   -923.60269            0   -908.54708   -5948.6248    13.482302    13.395907    13.717595    2.0601702    2329.6446    1559.5784 
 1299000    779.21564   -920.63511            0   -907.13843   -5503.8263    13.482302    13.395907    13.717595    2.2917269    2331.5834      1557.63 
 1300000    828.69947   -920.94395            0   -906.59016   -6465.5248    13.482302    13.395907    13.717595    1.8729672    2333.5194    1555.6796 
 1301000    687.71851   -920.54789            0   -908.63601    -5667.217    13.482302    13.395907    13.717595    2.4697611    2335.4592    1553.7318 
 1302000    822.12464   -920.88552            0   -906.64561   -4722.5928    13.482302    13.395907    13.717595    2.0283661    2337.3993    1551.7842 
 1303000     840.0893   -919.08118            0   -904.53011   -4534.9042    13.482302    13.395907    13.717595    2.9592052    2339.3347    1549.8335 
 1304000     723.8936   -921.19473            0   -908.65627   -7398.9508    13.482302    13.395907    13.717595    2.1627109    2341.2751    1547.8862 
 1305000    820.98154   -921.83864            0   -907.61853   -7668.4319    13.482302    13.395907    13.717595    1.9291631    2343.2085    1545.9343 
 1306000     849.4495   -920.52774            0   -905.81454   -6431.1119    13.482302    13.395907    13.717595    2.2247052    2345.1464    1543.9853 
 1307000    733.72591   -922.01203            0   -909.30326   -6872.3425    13.482302    13.395907    13.717595    3.0342417    2347.0854    1542.0371 
 1308000    823.12354   -920.85005            0   -906.59285   -2106.9566    13.482302    13.395907    13.717595    2.7265953    2349.0228    1540.0878 
 1309000     725.5723    -921.4235            0   -908.85597   -6573.7488    13.482302    13.395907    13.717595    2.2528627    2350.9598    1538.1383 
 1310000    777.08924   -922.54717            0   -909.08732   -9178.5063    13.482302    13.395907    13.717595    1.7745042    2352.8903    1536.1846 
 1311000    819.70265   -921.00856            0   -906.81061   -4401.5851    13.482302    13.395907    13.717595    2.0695231    2354.8302     1534.237 
 1312000    765.81909   -923.08235            0   -909.81771   -9901.8754    13.482302    13.395907    13.717595    1.8361618    2356.7655    1532.2865 
 1313000    768.73116   -922.37005            0   -909.05497   -4773.8397    13.482302    13.395907    13.717595     2.062053     2358.704    1530.3381 
 1314000    748.47115   -920.26652            0   -907.30235   -6292.4529    13.482302    13.395907    13.717595    2.2980406    2360.6408    1528.3885 
 1315000    686.75292   -920.14955            0    -908.2544   -5749.8305    13.482302    13.395907    13.717595    2.8909627    2362.5767    1526.4385 
 1316000    748.66443   -922.79242            0    -909.8249   -7155.6056    13.482302    13.395907    13.717595    2.2040273    2364.5145    1524.4896 
 1317000    857.72178   -922.10499            0   -907.24851   -8469.8523    13.482302    13.395907    13.717595    2.5479401    2366.4498    1522.5392 
 1318000    755.83387   -921.46116            0   -908.36947   -4508.9955    13.482302    13.395907    13.717595    1.8781964    2368.3887    1520.5911 
 1319000    681.13579   -922.28057            0   -910.48271   -7220.0421    13.482302    13.395907    13.717595    1.9016116    2370.3246    1518.6411 
 1320000    818.87815   -921.40874            0   -907.22507   -4185.0165    13.482302    13.395907    13.717595    2.4298906     2372.261    1516.6914 
 1321000     825.8185   -922.63004            0   -908.32616   -6680.5259    13.482302    13.395907    13.717595    1.8532677    2374.1992     1514.743 
 1322000    740.26407   -922.33519            0   -909.51318   -8267.8142    13.482302    13.395907    13.717595    1.5172364    2376.1388    1512.7954 
 1323000    856.28694   -920.97065            0   -906.13902   -3273.8341    13.482302    13.395907    13.717595     2.831116    2378.0794    1510.8485 
 1324000    803.35178      -922.57            0   -908.65526   -6356.0303    13.482302    13.395907    13.717595     2.424508    2380.0189    1508.9009 
 1325000    755.60415    -922.1832            0   -909.09549   -6246.4873    13.482302    13.395907    13.717595    1.8386957    2381.9563     1506.952 
 1326000    841.83173   -921.61485            0    -907.0336   -6065.8564    13.482302    13.395907    13.717595    2.0052254    2383.9035    1505.0092 
 1327000    753.94968   -921.23414            0   -908.17508   -7368.2979    13.482302    13.395907    13.717595    2.2131993    2385.8424    1503.0613 
 1328000    730.32216   -921.93934            0   -909.28953   -7883.4473    13.482302    13.395907    13.717595    1.5887914    2387.7768    1501.1105 
 1329000    843.01962   -921.41424            0   -906.81241   -7389.5695    13.482302    13.395907    13.717595    2.6654642    2389.7141    1499.1616 
 1330000    841.96182   -922.50064            0   -907.91714   -6800.5519    13.482302    13.395907    13.717595     1.579182    2391.6509    1497.2124 
 1331000     817.5183   -922.34693            0   -908.18682   -4451.0311    13.482302    13.395907    13.717595    2.2164053    2393.5937    1495.2669 
 1332000    744.58802   -919.65381            0   -906.75691   -3451.5632    13.482302    13.395907    13.717595    2.2415492    2395.5312    1493.3182 
 1333000    757.76039   -921.57505            0   -908.44999   -5397.0794    13.482302    13.395907    13.717595    2.4285193     2397.469    1491.3696 
 1334000    743.26554   -921.63152            0   -908.75752   -5711.0188    13.482302    13.395907    13.717595    2.2661262    2399.4088    1489.4223 
 1335000    880.18612   -921.36797            0   -906.12239   -5027.7245    13.482302    13.395907    13.717595    2.1819611    2401.3497    1487.4757 
 1336000    744.32171    -921.4834            0   -908.59111   -7368.1702    13.482302    13.395907    13.717595    1.8325338    2403.2847    1485.5255 
 1337000    777.33668   -920.71346            0   -907.24932   -6129.1409    13.482302    13.395907    13.717595    2.7285548    2405.2242    1483.5781 
 1338000    891.16074   -920.81634            0   -905.38067   -1737.7644    13.482302    13.395907    13.717595    2.3537367    2407.1642    1481.6309 
 1339000    782.31677   -921.94186            0   -908.39146   -7529.6976    13.482302    13.395907    13.717595    1.9770685    2409.1037    1479.6836 
 1340000    776.12129   -921.15848            0   -907.71539   -8229.0802    13.482302    13.395907    13.717595    1.6819835    2411.0366    1477.7321 
 1341000    871.28892   -920.92126            0   -905.82979   -4646.6546    13.482302    13.395907    13.717595    2.4544307     2412.978    1475.7859 
 1342000    838.04132   -922.76402            0   -908.24843    -8416.577    13.482302    13.395907    13.717595    2.5107205    2414.9138    1473.8363 
 1343000    868.54356    -922.3407            0   -907.29678   -2108.7817    13.482302    13.395907    13.717595    2.0856731    2416.8475    1471.8854 
 1344000    864.22479   -920.81265            0   -905.84353   -5407.6076    13.482302    13.395907    13.717595    2.3739234    2418.7873    1469.9383 
 1345000    732.29826   -921.86343            0   -909.17939   -6646.1902    13.482302    13.395907    13.717595    2.1692984    2420.7293    1467.9924 
 1346000    777.97657   -920.64792            0    -907.1727   -3338.7748    13.482302    13.395907    13.717595    2.9198635     2422.664    1466.0423 
 1347000    851.58438   -920.85183            0   -906.10166   -5601.8813    13.482302    13.395907    13.717595    2.7372762    2424.6024    1464.0943 
 1348000    758.26954   -922.40273            0   -909.26885   -7424.8118    13.482302    13.395907    13.717595     2.173779     2426.541    1462.1465 
 1349000    898.99783   -922.02497            0   -906.45356   -5369.6467    13.482302    13.395907    13.717595    2.1646807    2428.4768     1460.197 
 1350000    758.91423   -922.34758            0   -909.20253   -6367.1846    13.482302    13.395907    13.717595    2.0719718    2430.4142    1458.2485 
 1351000     750.0791   -921.80495            0   -908.81293   -6742.6343    13.482302    13.395907    13.717595    2.4416969    2432.3497    1456.2989 
 1352000    886.81683   -922.60781            0   -907.24738   -7494.7442    13.482302    13.395907    13.717595    2.1278834    2434.2887    1454.3514 
 1353000    723.23153   -921.96917            0   -909.44218    -7002.967    13.482302    13.395907    13.717595    2.1328956    2436.2287    1452.4045 
 1354000    689.26307   -921.54148            0   -909.60285   -7933.3307    13.482302    13.395907    13.717595    2.3996365    2438.1664    1450.4562 
 1355000    813.29328   -921.33255            0   -907.24561   -7424.6724    13.482302    13.395907    13.717595     1.987126    2440.1032    1448.5075 
 1356000    804.79752   -922.10267            0   -908.16289   -5499.5743    13.482302    13.395907    13.717595    2.1798384      2442.04    1446.5587 
 1357000    760.86121   -922.81646            0   -909.63769    -5766.225    13.482302    13.395907    13.717595    1.9327702    2443.9743    1444.6085 
 1358000    816.15055   -921.31509            0   -907.17866   -4573.2384    13.482302    13.395907    13.717595    2.3669523    2445.9115    1442.6601 
 1359000    756.31321    -921.2163            0    -908.1163     -4734.23    13.482302    13.395907    13.717595    2.3731334    2447.8514    1440.7132 
 1360000    739.47963   -923.70552            0    -910.8971   -7946.7208    13.482302    13.395907    13.717595    2.3112088    2449.7884    1438.7646 
 1361000    872.87073   -922.45871            0   -907.33984   -5676.8554    13.482302    13.395907    13.717595    1.7777848    2451.7197    1436.8127 
 1362000    808.13499   -921.89851            0   -907.90092    -8039.131    13.482302    13.395907    13.717595    2.0822166    2453.6567    1434.8642 
 1363000     684.9471   -922.28226            0   -910.41839   -8008.5096    13.482302    13.395907    13.717595    2.2183985    2455.5959     1432.917 
 1364000     822.4452   -921.01279            0   -906.76733   -4279.7882    13.482302    13.395907    13.717595    2.1991051    2457.5339    1430.9691 
 1365000    819.51838   -922.09471            0   -907.89994   -4280.1471    13.482302    13.395907    13.717595    2.3017249     2459.476    1429.0236 
 1366000    723.00512   -922.05784            0   -909.53477   -7208.2947    13.482302    13.395907    13.717595    2.4504275    2461.4089    1427.0728 
 1367000    834.28965   -920.39904            0   -905.94842   -4095.0319    13.482302    13.395907    13.717595    2.8206833    2463.3427    1425.1225 
 1368000    709.27121   -921.10871            0   -908.82352   -7696.0934    13.482302    13.395907    13.717595    1.9725087    2465.2739    1423.1707 
 1369000    815.94442   -921.45214            0   -907.31928   -5581.9169    13.482302    13.395907    13.717595    2.0277946    2467.2079    1421.2206 
 1370000    859.41351   -920.96545            0   -906.07967   -4749.1079    13.482302    13.395907    13.717595    2.8856954    2469.1482    1419.2742 
 1371000    823.25477   -923.03952            0   -908.78004   -5318.4918    13.482302    13.395907    13.717595    1.5247301    2471.0873     1417.327 
 1372000    893.74887    -922.2779            0    -906.7974   -3416.3705    13.482302    13.395907    13.717595    2.3745232    2473.0267    1415.3801 
 1373000    873.03663   -921.26363            0   -906.14189   -6539.4853    13.482302    13.395907    13.717595    2.4304963     2474.967    1413.4336 
 1374000    926.10652   -924.21262            0   -908.17166   -8354.9971    13.482302    13.395907    13.717595    1.9094897    2476.9089    1411.4881 
 1375000    827.32482   -921.98296            0   -907.65298   -8240.5268    13.482302    13.395907    13.717595    2.5807895    2478.8488    1409.5415 
 1376000    861.77827   -920.07734            0    -905.1506   -3081.1601    13.482302    13.395907    13.717595    2.0532235    2480.7883    1407.5946 
 1377000    810.12079   -922.13689            0   -908.10491   -4615.6261    13.482302    13.395907    13.717595    2.3566008    2482.7285    1405.6482 
 1378000    808.95834   -921.76971            0   -907.75786   -5604.0597    13.482302    13.395907    13.717595    2.8609409    2484.6665    1403.7005 
 1379000    885.09912   -920.26707            0    -904.9364   -8098.5723    13.482302    13.395907    13.717595    1.8072816    2486.6066     1401.754 
 1380000    815.51599   -922.35203            0    -908.2266    -5756.426    13.482302    13.395907    13.717595    1.9289923    2488.5394    1399.8034 
 1381000    753.52951   -920.67501            0   -907.62323   -8773.3482    13.482302    13.395907    13.717595    3.1507863    2490.4771    1397.8556 
 1382000    964.83821   -921.60514            0   -904.89332   -2554.1298    13.482302    13.395907    13.717595    2.4487535    2492.4156    1395.9083 
 1383000    760.54793    -921.9845            0   -908.81116   -6126.5691    13.482302    13.395907    13.717595     2.228104    2494.3535    1393.9606 
 1384000    868.74728   -922.46291            0   -907.41546   -6351.6482    13.482302    13.395907    13.717595    2.5756075    2496.2902    1392.0123 
 1385000    826.10279   -920.03989            0   -905.73108    170.17498    13.482302    13.395907    13.717595    2.7316838     2498.231    1390.0663 
 1386000    770.72381    -922.7784            0    -909.4288   -9635.4335    13.482302    13.395907    13.717595    1.9832841     2500.171    1388.1198 
 1387000    853.08943   -921.43828            0   -906.66203   -8665.7911    13.482302    13.395907    13.717595    2.4411175    2502.1623    1386.2018 
 1388000    780.62029   -921.39069            0   -907.86968   -5613.2485    13.482302    13.395907    13.717595    2.4789454    2504.1066    1384.2577 
 1389000    749.51603    -923.1103            0   -910.12804   -6506.7391    13.482302    13.395907    13.717595    2.5404676     2506.061    1382.3191 
 1390000    848.14918   -921.63827            0    -906.9476   -7569.5015    13.482302    13.395907    13.717595     3.279204    2507.9999     1380.372 
 1391000    851.66888   -922.58674            0    -907.8351   -5557.1534    13.482302    13.395907    13.717595    3.4047353    2509.9712    1378.4428 
 1392000    720.83415   -922.18854            0   -909.70308   -5534.4729    13.482302    13.395907    13.717595    1.9619295    2511.9298    1376.5064 
 1393000    856.95954   -922.72736            0   -907.88409   -6627.4989    13.482302    13.395907    13.717595    2.0506227    2513.8653    1374.5574 
 1394000    834.13635   -921.91436            0    -907.4664   -7858.1638    13.482302    13.395907    13.717595    2.5492341    2515.8112    1372.6141 
 1395000    723.22401   -923.12014            0   -910.59328   -7136.0299    13.482302    13.395907    13.717595     2.148778    2517.7475    1370.6656 
 1396000    786.41902   -921.16765            0    -907.5462   -5289.0029    13.482302    13.395907    13.717595    2.9295135    2519.6974    1368.7245 
 1397000    849.33983   -921.96134            0   -907.25005   -6493.7275    13.482302    13.395907    13.717595    2.1015329    2521.6456    1366.7825 
 1398000    704.75061   -922.74924            0   -910.54236   -6441.7663    13.482302    13.395907    13.717595    1.9641976    2523.6032    1364.8455 
 1399000    864.83551   -923.03915            0   -908.05945   -5539.2671    13.482302    13.395907    13.717595    2.3817461    2525.5355    1362.8948 
 1400000    781.52637   -920.97772            0   -907.44101   -4598.2063    13.482302    13.395907    13.717595    1.9584657    2527.4839    1360.9529 
 1401000    731.09395   -921.94499            0   -909.28182   -6511.1285    13.482302    13.395907    13.717595     2.352977    2529.4386    1359.0143 
 1402000    757.22485    -921.9207            0   -908.80492   -4933.1776    13.482302    13.395907    13.717595    1.9210714    2531.3697     1357.063 
 1403000    747.54815    -919.7386            0   -906.79043   -5345.8739    13.482302    13.395907    13.717595    2.3882874    2533.3203    1355.1222 
 1404000    770.10481   -922.79885            0   -909.45997   -7628.2292    13.482302    13.395907    13.717595     1.940098    2535.2593    1353.1752 
 1405000    795.60635   -922.53508            0    -908.7545   -9322.4843    13.482302    13.395907    13.717595    1.9091759     2537.205    1351.2318 
 1406000    869.76995    -921.3128            0   -906.24764   -5620.0986    13.482302    13.395907    13.717595    2.1893197     2539.142    1349.2837 
 1407000    767.32673    -922.5424            0   -909.25164    -6904.835    13.482302    13.395907    13.717595    2.1932166     2541.092    1347.3426 
 1408000    809.42785   -922.05233            0   -908.03234   -6230.6567    13.482302    13.395907    13.717595    2.1762048    2543.0243    1345.3921 
 1409000    762.65057   -920.74575            0   -907.53599   -6568.0362    13.482302    13.395907    13.717595    2.1016103    2544.9842    1343.4561 
 1410000    814.49983   -922.00958            0   -907.90174   -5863.9397    13.482302    13.395907    13.717595    2.2003196    2546.9463    1341.5214 
 1411000    776.24493   -923.25403            0    -909.8088   -8565.2055    13.482302    13.395907    13.717595    2.0209299    2548.8795    1339.5713 
 1412000    863.78688   -921.61874            0   -906.65721    -5273.105    13.482302    13.395907    13.717595    1.8119351    2550.8142    1337.6221 
 1413000    726.12433   -920.26074            0   -907.68365   -5616.1504    13.482302    13.395907    13.717595    2.8425285    2552.7519    1335.6745 
 1414000    804.97355   -922.91397            0   -908.97114   -6806.2936    13.482302    13.395907    13.717595    2.7142107    2554.6997    1333.7321 
 1415000    922.01158   -921.03482            0   -905.06479    -5039.344    13.482302    13.395907    13.717595    2.3250872    2556.6355    1331.7835 
 1416000    815.10544   -922.60226            0   -908.48393   -7123.0406    13.482302    13.395907    13.717595    2.1662266    2558.5826    1329.8408 
 1417000    771.64128   -920.95404            0   -907.58855   -5943.2918    13.482302    13.395907    13.717595    1.9119743     2560.528    1327.8972 
 1418000     889.1979   -921.22201            0   -905.82034   -7804.6473    13.482302    13.395907    13.717595     2.127057    2562.4665      1325.95 
 1419000    788.60308   -921.61529            0   -907.95601   -7077.8393    13.482302    13.395907    13.717595    2.5307025    2564.4467    1324.0244 
 1420000     769.3558   -920.98303            0   -907.65713   -2465.2572    13.482302    13.395907    13.717595    2.3118216    2566.3819    1322.0755 
 1421000    889.98155   -920.96186            0   -905.54661   -4093.5652    13.482302    13.395907    13.717595     3.599676    2568.3193    1320.1278 
 1422000    738.05697   -921.64335            0   -908.85957   -5503.2455    13.482302    13.395907    13.717595    2.2449142    2570.2587    1318.1811 
 1423000    808.58077    -921.4035            0   -907.39819   -4776.1211    13.482302    13.395907    13.717595    2.3083912    2572.1989    1316.2348 
 1424000    921.40674   -919.05342            0   -903.09386   -2384.2484    13.482302    13.395907    13.717595    3.7651169    2574.1358    1314.2869 
 1425000      757.206   -919.86628            0   -906.75082   -4800.3049    13.482302    13.395907    13.717595    2.5836332    2576.0762    1312.3407 
 1426000    770.74364    -922.3318            0   -908.98186    -7951.958    13.482302    13.395907    13.717595     2.363051    2578.0118    1310.3921 
 1427000    797.39738   -920.57228            0   -906.76068   -4543.1864    13.482302    13.395907    13.717595    2.0125453    2579.9527    1308.4462 
 1428000    799.03864   -920.83535            0   -906.99531   -4027.8448    13.482302    13.395907    13.717595    1.9271238    2581.8919    1306.4995 
 1429000    795.26055   -921.72025            0   -907.94565   -6404.6679    13.482302    13.395907    13.717595    2.2029728    2583.8266    1304.5506 
 1430000     814.5133   -921.70242            0   -907.59435   -4496.7321    13.482302    13.395907    13.717595    2.1446698    2585.7643    1302.6031 
 1431000    815.88215   -922.85015            0   -908.71837   -5819.2098    13.482302    13.395907    13.717595    2.5961642    2587.7022    1300.6558 
 1432000    733.49768   -921.13631            0    -908.4315   -6141.6992    13.482302    13.395907    13.717595    2.4654754    2589.6356    1298.7061 
 1433000    952.18627   -922.68184            0   -906.18916   -4364.5576    13.482302    13.395907    13.717595    1.9660685    2591.5754    1296.7598 
 1434000    773.15448   -921.81899            0   -908.42729   -5717.4337    13.482302    13.395907    13.717595    3.1055197    2593.5095    1294.8106 
 1435000    885.97211   -923.26411            0   -907.91831   -8699.5747    13.482302    13.395907    13.717595    1.8057186    2595.4437    1292.8615 
 1436000    831.49569   -920.22645            0   -905.82423   -4003.8453    13.482302    13.395907    13.717595    2.8811139    2597.3791     1290.913 
 1437000    782.13212    -921.2471            0    -907.6999   -4434.3032    13.482302    13.395907    13.717595    2.0592695    2599.3191    1288.9668 
 1438000     792.7442   -922.30026            0   -908.56925   -8968.4392    13.482302    13.395907    13.717595    2.0436644     2601.259    1287.0205 
 1439000    906.23132    -920.7658            0   -905.06909   -3854.5151    13.482302    13.395907    13.717595    2.2383768    2603.1957    1285.0727 
 1440000    768.40739   -922.23044            0   -908.92097   -6245.2603    13.482302    13.395907    13.717595    2.1763663    2605.1345     1283.126 
 1441000     849.3062   -922.62789            0   -907.91718   -6107.6876    13.482302    13.395907    13.717595    2.1429211     2607.072    1281.1786 
 1442000    918.33038   -922.19594            0   -906.28967   -4369.4579    13.482302    13.395907    13.717595    2.4525255    2609.0115    1279.2322 
 1443000    750.21809    -922.7992            0   -909.80478   -9902.8052    13.482302    13.395907    13.717595    1.8765373    2610.9522    1277.2864 
 1444000    783.81018   -921.01055            0   -907.43429        -6086    13.482302    13.395907    13.717595    2.0146538    2612.8914    1275.3398 
 1445000    853.95149   -922.12112            0   -907.32994   -5290.5504    13.482302    13.395907    13.717595    2.3902329    2614.8291    1273.3926 
 1446000    792.43634   -922.56965            0   -908.84397   -8542.1025    13.482302    13.395907    13.717595     1.780251    2616.7662    1271.4451 
 1447000    689.17863    -923.2012            0   -911.26403   -7422.1109    13.482302    13.395907    13.717595    1.9910082    2618.7001     1269.496 
 1448000    868.38898   -923.07837            0   -908.03713   -4763.2584    13.482302    13.395907    13.717595    2.7156264    2620.6401      1267.55 
 1449000     926.1832   -922.83196            0   -906.78968   -5984.5025    13.482302    13.395907    13.717595    1.7635696    2622.5751    1265.6015 
 1450000    756.94546   -921.83176            0   -908.72082   -7832.8483    13.482302    13.395907    13.717595    2.3573162     2624.511    1263.6535 
 1451000    768.93002   -921.98306            0   -908.66453   -5618.6874    13.482302    13.395907    13.717595    2.2320559    2626.4484    1261.7061 
 1452000    862.53993    -921.3123            0   -906.37237   -4932.6846    13.482302    13.395907    13.717595     2.529911    2628.3876    1259.7597 
 1453000    751.82919   -921.67861            0   -908.65628    -5789.679    13.482302    13.395907    13.717595     2.537437    2630.3261     1257.813 
 1454000     882.1378   -921.75143            0   -906.47205    -4257.031    13.482302    13.395907    13.717595    2.2998549    2632.2609    1255.8645 
 1455000    816.50927   -921.04767            0   -906.90503   -5329.2832    13.482302    13.395907    13.717595    1.6385739     2634.198    1253.9171 
 1456000    815.03254   -922.81389            0   -908.69682   -5327.8688    13.482302    13.395907    13.717595    2.4677557    2636.1369    1251.9706 
 1457000    786.04835   -919.20038            0   -905.58535   -2263.1067    13.482302    13.395907    13.717595    2.2366695    2638.0774    1250.0249 
 1458000    824.74968   -921.31911            0   -907.03374   -6947.1347    13.482302    13.395907    13.717595    2.1265202    2640.0102    1248.0755 
 1459000     758.5935   -921.19709            0    -908.0576   -6261.8272    13.482302    13.395907    13.717595    2.2177458    2641.9427     1246.126 
 1460000    786.46357     -921.205            0   -907.58277   -4586.8875    13.482302    13.395907    13.717595    3.1277626    2643.8753    1244.1766 
 1461000    834.97052   -920.58137            0   -906.11896   -4494.7217    13.482302    13.395907    13.717595      2.62422    2645.8092    1242.2278 
 1462000    755.31617   -922.52153            0   -909.43881   -9206.0351    13.482302    13.395907    13.717595    2.0139084     2647.741    1240.2781 
 1463000    828.55667    -921.9647            0   -907.61339   -4747.2162    13.482302    13.395907    13.717595    2.2309508     2649.675    1238.3294 
 1464000    820.30741   -921.22502            0   -907.01659   -5569.4082    13.482302    13.395907    13.717595    2.2113028    2651.6101    1236.3812 
 1465000    717.02324   -920.88177            0   -908.46231   -5606.2135    13.482302    13.395907    13.717595    2.5111104    2653.5423    1234.4318 
 1466000    828.17565   -924.20589            0   -909.86118   -9183.0527    13.482302    13.395907    13.717595    2.1190665    2655.4745    1232.4823 
 1467000    824.65668   -920.93709            0   -906.65333   -4553.4345    13.482302    13.395907    13.717595    3.0334263    2657.4088    1230.5339 
 1468000    799.59492   -921.77293            0   -907.92326   -6592.7191    13.482302    13.395907    13.717595     2.305086    2659.3436    1228.5856 
 1469000    747.56298   -922.60632            0   -909.65788   -6744.5102    13.482302    13.395907    13.717595    2.6816674     2661.274    1226.6354 
 1470000    734.50878    -920.9159            0   -908.19357   -6088.5497    13.482302    13.395907    13.717595    2.7183986    2663.2178    1224.6914 
 1471000    807.60599   -920.41931            0   -906.43088   -4602.5224    13.482302    13.395907    13.717595     2.402246    2665.1642    1222.7486 
 1472000    764.50904    -922.5155            0   -909.27354   -7192.1666    13.482302    13.395907    13.717595     2.129999    2667.1131    1220.8069 
 1473000    789.69934   -922.23288            0   -908.55461   -6669.6586    13.482302    13.395907    13.717595    2.5002337     2669.052    1218.8606 
 1474000    868.09005   -922.14122            0   -907.10516   -7139.2626    13.482302    13.395907    13.717595    1.8258447    2670.9905    1216.9141 
 1475000    776.79784   -922.05049            0   -908.59569   -6570.1495    13.482302    13.395907    13.717595    2.3976087    2672.9259    1214.9663 
 1476000    722.35895   -922.18157            0   -909.66969   -6181.0863    13.482302    13.395907    13.717595    2.4134385    2674.8599    1213.0179 
 1477000    861.01711   -921.24951            0   -906.33595   -4890.5075    13.482302    13.395907    13.717595    2.0339874    2676.7914    1211.0683 
 1478000    760.09827   -921.85218            0   -908.68663   -7643.9626    13.482302    13.395907    13.717595    2.5340587     2678.724    1209.1192 
 1479000    804.71195   -923.08015            0   -909.14185   -8091.9764    13.482302    13.395907    13.717595     2.177728    2680.6551    1207.1696 
 1480000    756.41552   -920.42655            0   -907.32479   -6945.4383    13.482302    13.395907    13.717595    2.5476984    2682.5908    1205.2219 
 1481000    691.88551   -919.79285            0    -907.8088   -3554.6877    13.482302    13.395907    13.717595    2.5993433    2684.5251    1203.2737 
 1482000    757.38824   -922.89287            0   -909.77426   -6556.9519    13.482302    13.395907    13.717595    2.4781189    2686.4568    1201.3244 
 1483000    824.54614   -920.92262            0   -906.64078   -974.37109    13.482302    13.395907    13.717595    2.5841421    2688.3857    1199.3738 
 1484000    763.97861   -921.17665            0   -907.94388   -7836.4743    13.482302    13.395907    13.717595    1.9031364    2690.3192    1197.4253 
 1485000    797.58587   -923.69446            0   -909.87958   -7080.0997    13.482302    13.395907    13.717595    2.2531324      2692.25    1195.4756 
 1486000    733.15554   -921.89301            0   -909.19412   -6146.7477    13.482302    13.395907    13.717595    2.8846815      2694.18    1193.5256 
 1487000    863.33243   -921.81214            0   -906.85848   -6364.3076    13.482302    13.395907    13.717595    2.3454248    2696.1283    1191.5837 
 1488000    736.10463   -922.38453            0   -909.63456   -4146.3401    13.482302    13.395907    13.717595    1.8306861    2698.0618    1189.6353 
 1489000    824.89219   -922.64743            0   -908.35959   -7367.2632    13.482302    13.395907    13.717595      2.48054    2699.9945    1187.6866 
 1490000    759.61529   -920.47589            0    -907.3187   -4289.9427    13.482302    13.395907    13.717595     1.915115    2701.9377    1185.7424 
 1491000    703.00369   -921.20006            0   -909.02344   -6697.9266    13.482302    13.395907    13.717595    2.5770404    2703.8716    1183.7942 
 1492000    769.86973   -920.68549            0   -907.35068   -6273.7106    13.482302    13.395907    13.717595    2.4704233    2705.8027    1181.8449 
 1493000     887.8432   -922.02595            0   -906.64774   -6696.9801    13.482302    13.395907    13.717595    2.3809613    2707.7373     1179.897 
 1494000    762.48424   -921.97622            0   -908.76934   -4790.2954    13.482302    13.395907    13.717595    2.3202335     2709.668    1177.9475 
 1495000    803.23065   -921.24392            0   -907.33127   -5127.0808    13.482302    13.395907    13.717595    2.1356576    2711.6111    1176.0034 
 1496000    859.17882   -920.57984            0   -905.69812   -3261.3019    13.482302    13.395907    13.717595    1.9782643    2713.5447    1174.0551 
 1497000    759.79162   -922.17239            0   -909.01214   -4842.5485    13.482302    13.395907    13.717595    1.8729085    2715.4765    1172.1062 
 1498000    830.14622   -922.00956            0   -907.63072   -5577.2867    13.482302    13.395907    13.717595    2.1489345    2717.4085    1170.1573 
 1499000    774.77347   -919.69443            0   -906.27469   -3447.0842    13.482302    13.395907    13.717595     2.050705    2719.3534     1168.214 
 1500000    773.35365   -921.30524            0   -907.91009      -8452.2    13.482302    13.395907    13.717595    1.9122406    2721.2851    1166.2651 
 1501000    752.62907   -922.12992            0   -909.09374   -5382.0968    13.482302    13.395907    13.717595    2.0611825    2723.2161    1164.3158 
 1502000    766.07712   -922.23561            0   -908.96649   -9266.4474    13.482302    13.395907    13.717595    2.3270627    2725.1494    1162.3676 
 1503000    812.51244   -920.55151            0   -906.47809   -8008.4438    13.482302    13.395907    13.717595    2.7466586    2727.0833    1160.4196 
 1504000    723.86332   -922.20815            0   -909.67022   -7506.4986    13.482302    13.395907    13.717595    2.8485511    2729.0163    1158.4713 
 1505000    627.44105   -920.28529            0   -909.41747    -4232.681    13.482302    13.395907    13.717595    2.6553003    2730.9462    1156.5217 
 1506000    851.35654   -921.89047            0   -907.14424   -4416.4397    13.482302    13.395907    13.717595    2.0628291    2732.8858    1154.5762 
 1507000    824.21757   -922.14195            0   -907.86579   -6892.2012    13.482302    13.395907    13.717595    1.7429956    2734.8166     1152.627 
 1508000    770.00416     -922.942            0   -909.60487   -8425.4772    13.482302    13.395907    13.717595    1.6001715    2736.7473    1150.6778 
 1509000     852.8688   -921.74664            0   -906.97422   -3639.5355    13.482302    13.395907    13.717595    1.6880912    2738.6791    1148.7292 
 1510000    781.82728   -921.48752            0    -907.9456   -4527.2579    13.482302    13.395907    13.717595      2.71483     2740.607    1146.7788 
 1511000    681.39899   -923.26006            0   -911.45765   -6178.4105    13.482302    13.395907    13.717595    1.8506854    2742.5375    1144.8296 
 1512000    797.74388   -922.65202            0   -908.83441   -7432.8184    13.482302    13.395907    13.717595    2.2814069    2744.4684    1142.8806 
 1513000    812.38287   -920.94266            0   -906.87149   -4180.1757    13.482302    13.395907    13.717595    2.3427369    2746.4052    1140.9341 
 1514000    813.64703   -922.52904            0   -908.43597   -8278.9439    13.482302    13.395907    13.717595    2.6737157    2748.3426    1138.9878 
 1515000    759.77465   -922.36197            0   -909.20202   -7588.3804    13.482302    13.395907    13.717595    2.5577103    2750.2752    1137.0396 
 1516000    830.22641   -921.63774            0   -907.25751   -5977.7123    13.482302    13.395907    13.717595    2.4278507    2752.2075    1135.0912 
 1517000    852.79749   -922.84078            0   -908.06959   -7588.2049    13.482302    13.395907    13.717595    1.4224686    2754.1452    1133.1451 
 1518000    694.24067    -922.6842            0   -910.65936   -6504.1933    13.482302    13.395907    13.717595    2.3136448     2756.077    1131.1966 
 1519000    783.27161   -920.72281            0   -907.15587   -2765.2012    13.482302    13.395907    13.717595    2.3130319    2758.0101    1129.2487 
 1520000    772.89298   -921.34182            0   -907.95465   -3118.1064    13.482302    13.395907    13.717595    2.8903652    2759.9434    1127.3008 
 1521000    716.56695   -922.94856            0   -910.53701   -7026.8268    13.482302    13.395907    13.717595    2.4846528    2761.8737    1125.3518 
 1522000    852.94658   -921.67068            0   -906.89691   -7351.5978    13.482302    13.395907    13.717595    2.7206235     2763.807     1123.404 
 1523000     785.8769   -921.29607            0   -907.68401   -3952.5944    13.482302    13.395907    13.717595    2.0603851    2765.7392    1121.4557 
 1524000    697.37343   -921.80922            0   -909.73012   -6946.1781    13.482302    13.395907    13.717595    1.6822039    2767.6723    1119.5079 
 1525000    889.97665   -921.41514            0   -905.99998   -5283.4344    13.482302    13.395907    13.717595    2.2705157    2769.6158    1117.5643 
 1526000    786.20443   -922.20792            0   -908.59018   -3914.3596    13.482302    13.395907    13.717595    1.8058362    2771.5486    1115.6163 
 1527000    767.87716    -921.1568            0   -907.85651   -5351.3586    13.482302    13.395907    13.717595    2.4994254    2773.4891    1113.6715 
 1528000     827.1505   -920.40339            0   -906.07643   -4749.5343    13.482302    13.395907    13.717595    1.9104294    2775.4235    1111.7242 
 1529000    766.76006   -921.59769            0   -908.31674   -7321.7162    13.482302    13.395907    13.717595     2.818798    2777.3556    1109.7761 
 1530000    822.38647   -921.93077            0   -907.68633   -5732.9318    13.482302    13.395907    13.717595    2.1448338    2779.3115    1107.8374 
 1531000    930.64643   -920.12903            0   -904.00943   -4000.0821    13.482302    13.395907    13.717595    2.1578782     2781.244    1105.8895 
 1532000    741.26776   -920.28358            0   -907.44418   -6992.9951    13.482302    13.395907    13.717595    2.0657968    2783.1857    1103.9452 
 1533000    752.93685   -921.50511            0    -908.4636   -6329.0364    13.482302    13.395907    13.717595    2.3683286    2785.1251         1102 
 1534000    832.24538    -919.9947            0    -905.5795   -5128.3591    13.482302    13.395907    13.717595    2.7505782     2787.064    1100.0545 
 1535000    786.17127   -921.44645            0   -907.82929   -4512.5717    13.482302    13.395907    13.717595    3.3412601    2788.9985    1098.1074 
 1536000    827.63393   -922.53678            0   -908.20145   -6305.3076    13.482302    13.395907    13.717595    1.9320257    2790.9404    1096.1632 
 1537000    808.93143   -919.92948            0   -905.91809   -4477.7207    13.482302    13.395907    13.717595    2.0764706    2792.8814    1094.2187 
 1538000    824.26604   -921.22611            0   -906.94912   -5811.0102    13.482302    13.395907    13.717595    2.3009194    2794.8332    1092.2783 
 1539000    803.67964   -922.80953            0    -908.8891     -6321.04    13.482302    13.395907    13.717595    2.3080041    2796.7728    1090.3333 
 1540000    837.55537   -920.30204            0   -905.79486   -2675.0346    13.482302    13.395907    13.717595    2.1628933    2798.7155    1088.3894 
 1541000    801.20932   -923.24367            0   -909.36604   -6246.1291    13.482302    13.395907    13.717595    1.9088328     2800.664    1086.4477 
 1542000     778.5724   -921.32542            0   -907.83988   -5145.0289    13.482302    13.395907    13.717595    2.2632825    2802.6136    1084.5065 
 1543000    731.66908   -919.39553            0   -906.72239   -2977.3694    13.482302    13.395907    13.717595    2.6119073    2804.5761    1082.5702 
 1544000     785.5942   -923.55278            0   -909.94561     -8848.56    13.482302    13.395907    13.717595    1.8672508    2806.5288    1080.6302 
 1545000    809.28581   -921.67801            0   -907.66048   -5331.0239    13.482302    13.395907    13.717595    2.3062901    2808.4854    1078.6916 
 1546000    864.44872   -922.35924            0   -907.38624   -6261.8097    13.482302    13.395907    13.717595    1.9292279    2810.4478    1076.7552 
 1547000    746.99765   -923.59293            0   -910.65429    -11032.06    13.482302    13.395907    13.717595    2.0865896    2812.4009    1074.8153 
 1548000    793.04193   -922.24911            0   -908.51295   -9740.8085    13.482302    13.395907    13.717595    3.6906014    2814.3601    1072.8776 
 1549000    854.27737   -922.00981            0   -907.21299   -6738.6837    13.482302    13.395907    13.717595    2.5294921    2816.3183    1070.9395 
 1550000    838.91554   -923.27183            0   -908.74109   -8293.3265    13.482302    13.395907    13.717595    1.9323543    2818.2712    1068.9994 
 1551000    824.25053   -923.56143            0    -909.2847   -7190.2365    13.482302    13.395907    13.717595     2.503313    2820.2042    1067.0517 
 1552000    743.19044    -919.7062            0   -906.83351   -4085.3342    13.482302    13.395907    13.717595    2.2583954    2822.1393    1065.1049 
 1553000    783.26218   -922.28215            0   -908.71538   -5496.0462    13.482302    13.395907    13.717595    1.8319876    2824.0752    1063.1584 
 1554000    718.59287   -923.66969            0   -911.22304   -8517.8976    13.482302    13.395907    13.717595    1.8535687    2826.0117    1061.2121 
 1555000    800.80921    -921.2222            0    -907.3515   -3399.2575    13.482302    13.395907    13.717595    3.9068474    2827.9427    1059.2638 
 1556000     845.8891   -922.12917            0   -907.47765     -5265.42    13.482302    13.395907    13.717595    2.6734862    2829.8762    1057.3164 
 1557000    735.84576   -922.78356            0   -910.03808   -7103.8267    13.482302    13.395907    13.717595    2.0915979    2831.8122      1055.37 
 1558000    838.01349   -920.71304            0   -906.19793   -4962.9877    13.482302    13.395907    13.717595    2.0978704      2833.75    1053.4242 
 1559000    763.69221   -921.66285            0   -908.43505   -6083.5579    13.482302    13.395907    13.717595    2.3073349    2835.6924    1051.4802 
 1560000    870.61233   -923.18795            0    -908.1082   -7598.2379    13.482302    13.395907    13.717595    2.0202417    2837.6273    1049.5334 
 1561000    881.42375   -921.37884            0   -906.11183   -5787.3871    13.482302    13.395907    13.717595    2.6091315    2839.5651    1047.5877 
 1562000    773.28043   -922.04986            0   -908.65598   -5712.9543    13.482302    13.395907    13.717595    2.3359084     2841.496    1045.6394 
 1563000    761.08065   -919.88142            0   -906.69885   -3450.9361    13.482302    13.395907    13.717595    3.1907567    2843.4307    1043.6926 
 1564000    892.10469   -921.17244            0   -905.72042    -4680.679    13.482302    13.395907    13.717595     2.015365    2845.3646    1041.7455 
 1565000    757.13261   -921.17143            0   -908.05724   -6872.2176    13.482302    13.395907    13.717595    2.3249187    2847.2982    1039.7983 
 1566000    864.51234   -923.09326            0   -908.11917   -7971.6375    13.482302    13.395907    13.717595    3.0892626    2849.2372    1037.8531 
 1567000    804.92463   -919.54914            0   -905.60715   -4767.1996    13.482302    13.395907    13.717595     2.914786    2851.1786    1035.9088 
 1568000    783.39227   -922.51091            0   -908.94189   -6366.5251    13.482302    13.395907    13.717595    2.0137677    2853.1151    1033.9627 
 1569000    779.19316   -921.61178            0   -908.11548   -7185.4882    13.482302    13.395907    13.717595    1.8514559    2855.0528    1032.0171 
 1570000     783.9222   -920.06013            0   -906.48193   -3850.1962    13.482302    13.395907    13.717595    2.7985612    2856.9878    1030.0704 
 1571000    787.86166     -920.618            0   -906.97156   -4622.5251    13.482302    13.395907    13.717595    2.8673981    2858.9273    1028.1254 
 1572000    772.02732   -922.63726            0   -909.26508   -7689.0932    13.482302    13.395907    13.717595     2.046802    2860.8623    1026.1789 
 1573000    841.21346    -920.5399            0   -905.96936   -5764.0302    13.482302    13.395907    13.717595    2.5416583    2862.7978    1024.2325 
 1574000    772.65053    -920.4956            0   -907.11263   -6903.1276    13.482302    13.395907    13.717595    2.2605426     2864.736    1022.2871 
 1575000    798.64221   -921.94659            0   -908.11342   -4661.4267    13.482302    13.395907    13.717595    1.9289472    2866.6751     1020.342 
 1576000    850.67587   -922.18223            0   -907.44779   -6361.5493    13.482302    13.395907    13.717595    2.9132517    2868.6125    1018.3963 
 1577000    823.24649   -920.54365            0   -906.28431    -4216.972    13.482302    13.395907    13.717595    2.2520039    2870.6115    1016.4724 
 1578000    765.63541    -922.3945            0   -909.13304   -7515.1222    13.482302    13.395907    13.717595    1.8378118    2872.5768    1014.5366 
 1579000      847.129     -922.145            0     -907.472   -4209.2905    13.482302    13.395907    13.717595    1.9956911    2874.5186    1012.5924 
 1580000    1004.1769   -920.19143            0   -902.79822   -1892.6545    13.482302    13.395907    13.717595    2.8348006    2876.4868    1010.6575 
 1581000    770.43329   -920.42615            0   -907.08159    -3707.737    13.482302    13.395907    13.717595     2.218397    2878.4256    1008.7123 
 1582000    730.21473   -921.70901            0   -909.06106   -4577.7377    13.482302    13.395907    13.717595    2.7869769    2880.3741    1006.7704 
 1583000    789.15627    -919.8982            0   -906.22934   -7620.8308    13.482302    13.395907    13.717595    2.5763043    2882.3138    1004.8255 
 1584000    862.18782   -921.81022            0   -906.87639   -4533.7662    13.482302    13.395907    13.717595    2.6274752    2884.2623    1002.8837 
 1585000    825.25083   -922.20154            0   -907.90749    -6822.618    13.482302    13.395907    13.717595    1.7476041    2886.2057      1000.94 
 1586000    878.46308   -922.76926            0   -907.55352    -5624.178    13.482302    13.395907    13.717595    2.6521227    2888.1474    998.99581 
 1587000    855.44376   -921.75138            0   -906.93436   -6544.8965    13.482302    13.395907    13.717595    2.1757243    2890.1082    997.05818 
 1588000    779.14959   -923.15458            0   -909.65904    -8821.396    13.482302    13.395907    13.717595    2.3243549    2892.1249    995.13975 
 1589000    889.76336    -921.9307            0   -906.51923   -4592.4346    13.482302    13.395907    13.717595    2.0576803     2894.071    993.19695 
 1590000    801.99643   -921.39564            0   -907.50437   -5918.5998    13.482302    13.395907    13.717595    2.0831385    2896.0044    991.24984 
 1591000     765.7131    -922.2122            0   -908.94939   -4662.4206    13.482302    13.395907    13.717595    2.2246281    2897.9905     989.3207 
 1592000    847.96003   -919.88847            0   -905.20107   -4145.2452    13.482302    13.395907    13.717595    2.3841752    2899.9251    987.37395 
 1593000    729.78112   -921.03821            0   -908.39777   -3208.1603    13.482302    13.395907    13.717595     2.487643    2901.8784    985.43358 
 1594000     784.5113   -921.32655            0   -907.73814   -7400.5574    13.482302    13.395907    13.717595     2.468729    2903.8343    983.49408 
 1595000    920.77324   -920.74554            0   -904.79696   -4221.7283    13.482302    13.395907    13.717595     2.110062    2905.7824     981.5519 
 1596000    780.44284    -920.8648            0   -907.34686   -2613.4421    13.482302    13.395907    13.717595    1.9994508    2907.7941    979.63118 
 1597000    731.69398   -921.91192            0   -909.23835   -4955.1645    13.482302    13.395907    13.717595    2.3269242    2909.7919    977.70564 
 1598000    870.27375   -921.32512            0   -906.25123   -6778.4124    13.482302    13.395907    13.717595    3.4201539    2911.7486    975.76621 
 1599000    822.59785   -921.79251            0   -907.54441    -2815.099    13.482302    13.395907    13.717595    2.5753225    2913.6843    973.81978 
 1600000    786.84238   -922.06578            0     -908.437   -6210.3171    13.482302    13.395907    13.717595     2.179312    2915.6335    971.87785 
 1601000    801.20895   -921.18341            0   -907.30578   -2812.0217    13.482302    13.395907    13.717595    2.0340043    2917.5737     969.9329 
 1602000    899.13591   -921.29981            0     -905.726   -5874.4708    13.482302    13.395907    13.717595    2.1112991    2919.5308    967.99357 
 1603000    715.79111   -921.01436            0   -908.61624   -6170.0225    13.482302    13.395907    13.717595    2.8329117    2921.4884    966.05437 
 1604000    831.98479   -922.41699            0    -908.0063   -6684.7887    13.482302    13.395907    13.717595     2.665004    2923.4237     964.1078 
 1605000    941.87513   -922.09707            0   -905.78298   -6018.4589    13.482302    13.395907    13.717595    1.7187103    2925.3824    962.16896 
 1606000    829.49692   -922.45493            0   -908.08733   -6891.2787    13.482302    13.395907    13.717595     2.337534    2927.3225    960.22399 
 1607000    750.15472   -920.92671            0   -907.93339   -7303.4136    13.482302    13.395907    13.717595    2.6327163    2929.3218    958.29839 
 1608000    828.72386   -919.92275            0   -905.56854    -3822.587    13.482302    13.395907    13.717595    2.0531453    2931.2564    956.35157 
 1609000    795.51698   -922.28452            0   -908.50548   -7616.9556    13.482302    13.395907    13.717595     2.149628    2933.2597    954.42711 
 1610000    846.47031   -922.22004            0   -907.55844   -4801.8323    13.482302    13.395907    13.717595    2.9732807    2935.1972    952.48121 
 1611000     914.4059   -920.06507            0   -904.22677   -3872.9689    13.482302    13.395907    13.717595    2.6341343    2937.1328     950.5347 
 1612000     761.4167   -920.84101            0   -907.65262    -4533.274    13.482302    13.395907    13.717595    2.0774607    2939.0734    948.58982 
 1613000     775.3142   -922.07352            0   -908.64441   -7489.0227    13.482302    13.395907    13.717595    2.2938175    2941.0084    946.64316 
 1614000    818.92047    -920.7606            0   -906.57619   -888.04116    13.482302    13.395907    13.717595    2.1551734    2942.9438    944.69664 
 1615000    810.82801   -921.16731            0   -907.12307   -6454.1288    13.482302    13.395907    13.717595    1.7381288     2944.884    942.75164 
 1616000    794.38767   -922.47722            0   -908.71774   -6402.2293    13.482302    13.395907    13.717595    2.4112714    2946.8224    940.80609 
 1617000    845.30709     -921.072            0   -906.43056   -2682.2936    13.482302    13.395907    13.717595    2.5723721     2948.756    938.85903 
 1618000     738.5235    -922.0949            0   -909.30304   -5709.5165    13.482302    13.395907    13.717595    2.5688824    2950.6962    936.91408 
 1619000    742.40333   -921.14186            0    -908.2828   -4952.9992    13.482302    13.395907    13.717595    2.5071221    2952.6329    934.96802 
 1620000    824.29811   -921.12582            0   -906.84827   -5823.1425    13.482302    13.395907    13.717595    2.3956075    2954.5706     933.0223 
 1621000    831.15075   -922.81133            0   -908.41508   -6472.1528    13.482302    13.395907    13.717595    1.7495099    2956.5104    931.07725 
 1622000    721.34451   -924.06242            0   -911.56812   -8229.3306    13.482302    13.395907    13.717595    2.4381666    2958.4512     929.1325 
 1623000    832.25208   -922.57376            0   -908.15844   -6540.6702    13.482302    13.395907    13.717595    1.9686653    2960.3909    927.18742 
 1624000    824.21071   -921.01479            0   -906.73875    -2007.493    13.482302    13.395907    13.717595    1.9941172    2962.3276    925.24143 
 1625000    768.49085    -923.0722            0   -909.76128   -7218.5446    13.482302    13.395907    13.717595     2.120292    2964.2678    923.29654 
 1626000    797.84617   -921.92605            0   -908.10666   -5992.1602    13.482302    13.395907    13.717595    3.0705416    2966.2069    921.35128 
 1627000    738.21445   -920.02103            0   -907.23452   -3305.1908    13.482302    13.395907    13.717595    2.8690784    2968.1407    919.40442 
 1628000    822.63101     -923.256            0   -909.00733   -9185.4068    13.482302    13.395907    13.717595    1.9157611    2970.0743    917.45751 
 1629000    766.60213   -923.53408            0   -910.25588   -6603.9907    13.482302    13.395907    13.717595    1.9561356    2972.0132    915.51225 
 1630000    834.21425   -921.29958            0   -906.85028   -5595.1054    13.482302    13.395907    13.717595     2.394385    2973.9533    913.56736 
 1631000    723.70096   -921.44674            0   -908.91162   -8095.5404    13.482302    13.395907    13.717595     2.115331     2975.885     911.6199 
 1632000    749.58784   -922.50978            0   -909.52628    -3732.989    13.482302    13.395907    13.717595    2.1017337    2977.8189    909.67313 
 1633000    777.90732   -919.87185            0   -906.39782   -4073.1405    13.482302    13.395907    13.717595    2.2129381    2979.7553    907.72716 
 1634000    722.08272   -921.66916            0   -909.16206   -7399.5098    13.482302    13.395907    13.717595    2.0850223    2981.6876    905.77995 
 1635000    832.41114   -920.90329            0   -906.48522    -4152.871    13.482302    13.395907    13.717595    3.4528829    2983.6199    903.83274 
 1636000     824.8497   -921.31731            0    -907.0302   -5098.2594    13.482302    13.395907    13.717595    2.5291139    2985.5558    901.88665 
 1637000    770.05949   -922.13126            0   -908.79317   -8044.5053    13.482302    13.395907    13.717595    2.0591149    2987.4907    899.94028 
 1638000    879.87194   -920.10217            0   -904.86203   -5600.4473    13.482302    13.395907    13.717595    3.2271382    2989.4311    897.99554 
 1639000    889.14037   -922.75156            0   -907.35089    -10281.89    13.482302    13.395907    13.717595    2.0157685    2991.3695    896.05025 
 1640000    788.61627    -921.9616            0   -908.30209   -5888.1194    13.482302    13.395907    13.717595    2.7916994    2993.3014    894.10302 
 1641000    850.07951   -920.00368            0   -905.27957    -3532.317    13.482302    13.395907    13.717595    2.2685982    2995.2376    892.15707 
 1642000    832.41052   -922.05989            0   -907.64182   -5282.6649    13.482302    13.395907    13.717595     2.119303    2997.1742    890.21126 
 1643000    774.19153   -921.79747            0   -908.38781   -4351.6912    13.482302    13.395907    13.717595    2.2657073    2999.1082    888.26472 
 1644000    917.04723   -921.68157            0   -905.79752   -4607.3303    13.482302    13.395907    13.717595     1.824086    3001.0423    886.31818 
 1645000    792.79031   -921.34361            0   -907.61181   -6568.3747    13.482302    13.395907    13.717595    2.3176272    3002.9793    884.37255 
 1646000    820.57515   -922.59445            0   -908.38138   -9128.0433    13.482302    13.395907    13.717595    2.3797436    3004.9147    882.42643 
 1647000    846.66226   -920.72875            0   -906.06384   -3603.6658    13.482302    13.395907    13.717595    2.0562174    3006.8546    880.48168 
 1648000    866.31051   -922.80569            0   -907.80044   -4435.1293    13.482302    13.395907    13.717595    2.3092673    3008.7897    878.53549 
 1649000    699.13645   -920.87743            0   -908.76778   -5461.9789    13.482302    13.395907    13.717595    2.5733628    3010.7253    876.58947 
 1650000    859.09764   -920.71816            0   -905.83785   -5311.7321    13.482302    13.395907    13.717595    2.5994915    3012.6604    874.64333 
 1651000    715.37814    -922.1899            0   -909.79893    -8639.192    13.482302    13.395907    13.717595    2.0662582     3014.598    872.69794 
 1652000    820.37558   -922.32514            0   -908.11553   -6510.2701    13.482302    13.395907    13.717595    2.7095604    3016.5289    870.75062 
 1653000    859.53709   -921.45991            0   -906.57199   -6740.5246    13.482302    13.395907    13.717595    2.8649691    3018.4616    868.80382 
 1654000    795.39909   -923.65216            0   -909.87516   -6894.0179    13.482302    13.395907    13.717595    2.2010465    3020.3944    866.85709 
 1655000    768.64847    -921.6399            0   -908.32625   -5013.3917    13.482302    13.395907    13.717595    3.5125888    3022.3326    864.91189 
 1656000     903.3332   -923.05685            0   -907.41034    -5733.358    13.482302    13.395907    13.717595    1.9754426    3024.2665    862.96549 
 1657000    811.40834   -920.62183            0   -906.56754   -5140.2692    13.482302    13.395907    13.717595    2.1028116    3026.2084    861.02141 
 1658000    731.00081   -921.48002            0   -908.81846   -3115.2397    13.482302    13.395907    13.717595    2.7326032    3028.1438    859.07547 
 1659000    825.29303   -922.17236            0   -907.87758   -6846.4933    13.482302    13.395907    13.717595    2.6476689    3030.0761    857.12865 
 1660000    885.52268   -921.73859            0   -906.40058   -4160.4264    13.482302    13.395907    13.717595    2.5834209    3032.0163    855.18409 
 1661000    821.83888   -922.73597            0   -908.50101   -7755.8441    13.482302    13.395907    13.717595    2.8450089    3033.9535    853.23867 
 1662000    741.51984   -920.59472            0   -907.75096   -5261.0612    13.482302    13.395907    13.717595    2.9903165    3035.8944    851.29432 
 1663000    749.85521   -920.55916            0   -907.57102   -7739.2563    13.482302    13.395907    13.717595    2.7184057    3037.8322    849.34913 
 1664000    794.04136   -920.75858            0    -907.0051   -4657.3682    13.482302    13.395907    13.717595    2.6131118    3039.7666    847.40296 
 1665000     846.1324   -921.59115            0   -906.93541   -7432.9356    13.482302    13.395907    13.717595    2.4927439    3041.7012    845.45688 
 1666000    785.32178   -923.09981            0   -909.49736   -7497.3471    13.482302    13.395907    13.717595    1.8743351     3043.639    843.51171 
 1667000    874.36136   -920.98379            0    -905.8391   -4529.9102    13.482302    13.395907    13.717595    2.5017737    3045.5763     841.5664 
 1668000    829.40901   -922.13353            0   -907.76745   -5284.9906    13.482302    13.395907    13.717595      2.01311    3047.5142    839.62127 
 1669000    834.57189   -923.00214            0   -908.54664   -5763.4891    13.482302    13.395907    13.717595    2.2910422    3049.4515    837.67597 
 1670000    908.39578   -920.03003            0   -904.29583   -4698.0066    13.482302    13.395907    13.717595    2.0232657    3051.3852    835.72969 
 1671000    758.49212    -920.7192            0   -907.58146   -4197.2293    13.482302    13.395907    13.717595    4.4557816    3053.3187     833.7834 
 1672000    824.11539   -922.69919            0    -908.4248   -6668.5032    13.482302    13.395907    13.717595    2.7677776    3055.2524    831.83717 
 1673000    879.14051   -920.59621            0   -905.36874   -1808.6097    13.482302    13.395907    13.717595    2.7896882    3057.1853    829.89072 
 1674000    806.61752   -922.05173            0   -908.08042   -7455.3741    13.482302    13.395907    13.717595    2.8997065    3059.1254    827.94625 
 1675000    761.05771   -921.20731            0   -908.02513   -5286.0383    13.482302    13.395907    13.717595       2.3921    3061.0617    826.00078 
 1676000    850.37184   -920.12216            0   -905.39299   -4701.4244    13.482302    13.395907    13.717595    2.4911034    3062.9954    824.05461 
 1677000    862.44755   -921.94083            0    -907.0025   -5608.7675    13.482302    13.395907    13.717595    1.8524652    3064.9355    822.11016 
 1678000    764.44231   -921.84126            0   -908.60047   -4967.2251    13.482302    13.395907    13.717595    2.2635543    3066.8689    820.16391 
 1679000    889.31429   -921.15311            0   -905.74942   -7901.8152    13.482302    13.395907    13.717595    2.0366634    3068.8115    818.22016 
 1680000     825.5154   -922.71564            0     -908.417   -4795.1132    13.482302    13.395907    13.717595    1.8541613    3070.7596    816.27786 
 1681000    767.15122   -921.60198            0   -908.31426   -6168.0121    13.482302    13.395907    13.717595      3.15838    3072.6919    814.33137 
 1682000    799.17157   -919.86906            0   -906.02672   -4962.6406    13.482302    13.395907    13.717595    2.7677809    3074.6269    812.38562 
 1683000    745.60663   -922.73501            0   -909.82046   -9539.8752    13.482302    13.395907    13.717595    1.5361095    3076.5673    810.44128 
 1684000    851.35343   -922.04149            0   -907.29531   -5380.1316    13.482302    13.395907    13.717595    1.7959058    3078.5037    808.49592 
 1685000    761.87614    -920.3371            0   -907.14075   -2695.2588    13.482302    13.395907    13.717595    3.0444787    3080.4436    806.55147 
 1686000     720.0367   -923.83187            0   -911.36021    -11400.01    13.482302    13.395907    13.717595    1.6883914    3082.3768     804.6053 
 1687000    776.35401   -922.28685            0   -908.83973   -7622.9757    13.482302    13.395907    13.717595    2.2567196    3084.3115    802.65952 
 1688000    898.66872   -922.53851            0    -906.9728   -6962.1584    13.482302    13.395907    13.717595    1.7194029    3086.2491     800.7145 
 1689000    675.95987   -921.66805            0   -909.95985   -6868.6095    13.482302    13.395907    13.717595     1.953757     3088.187    798.76958 
 1690000    680.93687   -920.33823            0   -908.54382   -5298.3246    13.482302    13.395907    13.717595    2.4957289    3090.1278    796.82541 
 1691000    822.21085   -921.85735            0   -907.61595   -5960.8411    13.482302    13.395907    13.717595    2.4093733    3092.0664    794.88067 
 1692000    813.69621    -922.0417            0   -907.94778   -4992.2707    13.482302    13.395907    13.717595    2.3088527    3093.9995    792.93455 
 1693000    750.91155   -921.87267            0   -908.86623   -6554.8396    13.482302    13.395907    13.717595    2.2913188    3095.9311    790.98805 
 1694000    843.22026    -920.4912            0    -905.8859   -5464.5797    13.482302    13.395907    13.717595    1.8137574    3097.8679    789.04288 
 1695000    761.38359   -922.00044            0   -908.81262   -7615.8434    13.482302    13.395907    13.717595    1.7334927    3099.8006    787.09672 
 1696000     802.4698   -922.30867            0   -908.40921   -7420.7078    13.482302    13.395907    13.717595    2.0120344    3101.7392    785.15202 
 1697000    837.39789   -920.99904            0   -906.49459   -5580.2635    13.482302    13.395907    13.717595    2.2120461    3103.6846    783.20908 
 1698000    769.69855    -923.3651            0   -910.03326   -7906.6267    13.482302    13.395907    13.717595    2.4948038    3105.6217    781.26404 
 1699000     819.7682   -921.89409            0     -907.695   -6012.8838    13.482302    13.395907    13.717595    1.8277287    3107.5617    779.31972 
 1700000    877.82435   -922.52451            0   -907.31983   -5500.1757    13.482302    13.395907    13.717595     2.398492     3109.495    777.37376 
 1701000     817.2379   -923.43509            0   -909.27983   -6592.4871    13.482302    13.395907    13.717595    2.0716748    3111.4285    775.42785 
 1702000    657.09897   -921.76093            0   -910.37941   -6240.6324    13.482302    13.395907    13.717595    2.0591572    3113.3611    773.48173 
 1703000     820.5972   -921.95881            0   -907.74536   -4902.9807    13.482302    13.395907    13.717595    2.5850402    3115.2936     771.5356 
 1704000    796.72588   -920.71037            0   -906.91039   -5038.0019    13.482302    13.395907    13.717595    2.5922591    3117.2334    769.59129 
 1705000    746.05187   -922.90268            0   -909.98042   -6852.1807    13.482302    13.395907    13.717595    2.2764997     3119.174    767.64719 
 1706000    818.29186   -921.31348            0   -907.13996   -6008.7787    13.482302    13.395907    13.717595    2.1267507    3121.1114     765.7023 
 1707000    819.81476   -921.72004            0   -907.52014   -4965.2506    13.482302    13.395907    13.717595    2.1672339    3123.0435    763.75612 
 1708000     682.6706    -921.6143            0   -909.78986   -9273.3743    13.482302    13.395907    13.717595    2.0522535     3124.982    761.81153 
 1709000    773.79727   -922.96956            0   -909.56672   -7932.1357    13.482302    13.395907    13.717595    1.8547457    3126.9181    759.86636 
 1710000    840.51282   -921.51824            0   -906.95984   -6225.6418    13.482302    13.395907    13.717595     2.258776    3128.8519    757.92066 
 1711000    755.60843   -921.88508            0   -908.79729   -4906.2787    13.482302    13.395907    13.717595     2.229694    3130.7866    755.97517 
 1712000    760.91752   -922.45746            0   -909.27772   -7250.4312    13.482302    13.395907    13.717595    1.5561757    3132.7245    754.03046 
 1713000    824.59786   -920.98127            0   -906.69853   -4477.5462    13.482302    13.395907    13.717595    1.8527606     3134.658    752.08472 
 1714000    711.09118   -921.61622            0   -909.29951   -6547.3954    13.482302    13.395907    13.717595    2.5089995    3136.5966    750.14021 
 1715000    903.70418   -921.95321            0   -906.30028   -6358.5482    13.482302    13.395907    13.717595    1.9389254    3138.5319    748.19492 
 1716000    780.30511    -921.0534            0   -907.53785   -3183.5822    13.482302    13.395907    13.717595      1.87124    3140.4648    746.24907 
 1717000    809.72054   -922.75553            0   -908.73047   -8447.0885    13.482302    13.395907    13.717595    1.9460455    3142.4003    744.30384 
 1718000    961.02038    -921.5868            0    -904.9411   -5342.4858    13.482302    13.395907    13.717595     2.504334    3144.3396    742.35953 
 1719000     826.8475   -921.25961            0    -906.9379   -6541.6093    13.482302    13.395907    13.717595    2.2748766    3146.2779      740.415 
 1720000    724.16838   -920.82784            0   -908.28462   -5584.3674    13.482302    13.395907    13.717595    2.1511821    3148.2109    738.46923 
 1721000    760.99604   -921.57992            0   -908.39881   -7084.6396    13.482302    13.395907    13.717595    2.3931789    3150.1421    736.52305 
 1722000    922.68297   -921.72991            0   -905.74825    -5444.943    13.482302    13.395907    13.717595    2.3672942    3152.0748    734.57724 
 1723000    726.79976   -921.98442            0   -909.39562   -6638.3054    13.482302    13.395907    13.717595    2.3680624    3154.0151    732.63321 
 1724000    780.71129   -921.24731            0   -907.72472   -5291.0484    13.482302    13.395907    13.717595    2.1683049    3155.9555     730.6892 
 1725000    830.78871   -921.32666            0   -906.93668   -6264.3393    13.482302    13.395907    13.717595    2.1396355    3157.8928    728.74449 
 1726000    755.91925   -921.35422            0   -908.26105   -4068.8225    13.482302    13.395907    13.717595    1.9415818    3159.8323    726.80029 
 1727000    811.77036   -921.84572            0   -907.78516    -2969.636    13.482302    13.395907    13.717595    3.2007584    3161.7707    724.85586 
 1728000    889.08426   -922.40738            0   -907.00768   -5684.4755    13.482302    13.395907    13.717595    2.9419878    3163.7066    722.91085 
 1729000    703.62861   -921.49024            0   -909.30279   -6926.6819    13.482302    13.395907    13.717595    1.8266356    3165.6364    720.96446 
 1730000    723.43558   -920.29815            0   -907.76762   -4930.1688    13.482302    13.395907    13.717595    2.4627379    3167.5706    719.01909 
 1731000    711.38724    -919.1321            0   -906.81026   -3296.8584    13.482302    13.395907    13.717595    3.2938148    3169.5098    717.07488 
 1732000    802.02499   -922.99351            0   -909.10175   -8743.8878    13.482302    13.395907    13.717595    1.9702352    3171.4408    715.12882 
 1733000    922.77519    -921.1044            0   -905.12114   -4123.9059    13.482302    13.395907    13.717595    2.2793093    3173.3742     713.1833 
 1734000    759.11743   -920.87422            0   -907.72566    -6180.137    13.482302    13.395907    13.717595    3.1226892    3175.3115    711.23869 
 1735000    762.81019   -921.54884            0   -908.33632   -6750.3429    13.482302    13.395907    13.717595    2.2420854    3177.2484    709.29398 
 1736000     947.4519   -921.08186            0   -904.67118   -500.56508    13.482302    13.395907    13.717595    2.3017922    3179.1875    707.34979 
 1737000    865.89756   -922.48843            0   -907.49034   -5930.3005    13.482302    13.395907    13.717595    3.2945711    3181.1291    705.40614 
 1738000    776.86824   -921.53836            0   -908.08234   -5896.2507    13.482302    13.395907    13.717595    3.2004398    3183.0631    703.46083 
 1739000    747.98942   -920.05728            0   -907.10146   -4119.2929    13.482302    13.395907    13.717595    3.8409118    3184.9942     701.5149 
 1740000    846.39987   -921.47073            0   -906.81036   -5252.4858    13.482302    13.395907    13.717595    2.4062736    3186.9318    699.57039 
 1741000     742.3031   -922.43403            0    -909.5767   -6169.7787    13.482302    13.395907    13.717595    2.4246165    3188.8658    697.62512 
 1742000    834.64097   -921.92978            0   -907.47308   -6135.5591    13.482302    13.395907    13.717595    2.3457045    3190.8029    695.68053 
 1743000    790.85322   -921.59704            0   -907.89878   -5314.2977    13.482302    13.395907    13.717595    2.2146649    3192.7385    693.73564 
 1744000    734.71091   -921.68998            0   -908.96416   -6367.2573    13.482302    13.395907    13.717595    2.0288621    3194.6807    691.79217 
 1745000    827.23976   -921.42992            0   -907.10142   -4729.0397    13.482302    13.395907    13.717595    1.9800607    3196.6178     689.8476 
 1746000    798.96582   -920.69173            0   -906.85295   -3516.5729    13.482302    13.395907    13.717595    2.0738347    3198.5559    687.90328 
 1747000    762.36576   -922.55279            0   -909.34796   -9223.9995    13.482302    13.395907    13.717595    2.5243124    3200.4932    685.95877 
 1748000    856.79133   -922.02615            0   -907.18578   -6795.5392    13.482302    13.395907    13.717595    2.0353561     3202.431     684.0144 
 1749000    791.30539   -921.53359            0    -907.8275   -7202.8036    13.482302    13.395907    13.717595    2.4459705    3204.3693    682.07013 
 1750000    809.34031   -923.69797            0    -909.6795   -9323.7903    13.482302    13.395907    13.717595    2.7371436    3206.3046    680.12522 
 1751000    861.31479   -921.91113            0   -906.99242   -6366.2537    13.482302    13.395907    13.717595    2.1862551    3208.2444    678.18127 
 1752000    759.37939   -921.76904            0   -908.61594   -6965.7376    13.482302    13.395907    13.717595    2.0823908     3210.181    676.23668 
 1753000    688.39547   -922.90682            0   -910.98322   -8238.0826    13.482302    13.395907    13.717595    1.8023017    3212.1155    674.29164 
 1754000    753.44033   -921.37095            0   -908.32072   -6735.6972    13.482302    13.395907    13.717595    2.0004749     3214.055    672.34767 
 1755000     859.0691   -921.56531            0    -906.6855   -8068.5784    13.482302    13.395907    13.717595    2.0129662    3215.9925    670.40328 
 1756000    742.50832   -922.22695            0   -909.36606   -8185.5791    13.482302    13.395907    13.717595    1.7474244    3217.9298    668.45884 
 1757000     749.4328   -920.97823            0   -907.99741   -5664.4005    13.482302    13.395907    13.717595    1.9994289    3219.8621    666.51341 
 1758000      893.026   -922.42348            0    -906.9555   -8605.9376    13.482302    13.395907    13.717595    2.3019681    3221.7999    664.56909 
 1759000    785.59467   -922.78124            0   -909.17406   -6452.9862    13.482302    13.395907    13.717595    2.0725057    3223.7371    662.62469 
 1760000    851.10698   -921.12622            0   -906.38432    -4185.805    13.482302    13.395907    13.717595    2.0664552    3225.6739    660.68019 
 1761000    885.10635   -922.47335            0   -907.14255    -6890.324    13.482302    13.395907    13.717595    2.0207294    3227.6085    658.73528 
 1762000    801.74544   -922.56405            0   -908.67713   -4849.3669    13.482302    13.395907    13.717595    2.3846478    3229.5403    656.78978 
 1763000    812.89596   -921.94434            0   -907.86429   -6785.4282    13.482302    13.395907    13.717595    1.7934308    3231.4773    654.84537 
 1764000    882.55243   -919.37784            0   -904.09127   -2719.8279    13.482302    13.395907    13.717595    2.1484042    3233.4103    652.90016 
 1765000    781.23324   -921.14338            0   -907.61175    -5186.408    13.482302    13.395907    13.717595    3.2981479    3235.3474    650.95578 
 1766000     801.1592   -922.43249            0   -908.55572   -6245.4796    13.482302    13.395907    13.717595    2.0143867    3237.2831    649.01115 
 1767000    850.70585   -920.12934            0   -905.39438   -2495.8437    13.482302    13.395907    13.717595    2.3972844    3239.2657    647.07587 
 1768000    818.73153   -922.25463            0   -908.07349   -7597.3811    13.482302    13.395907    13.717595    2.3583287    3241.2211    645.13513 
 1769000    743.51111   -921.04236            0   -908.16411   -5999.9022    13.482302    13.395907    13.717595    1.8141541    3243.1581    643.19073 
 1770000    881.20616   -921.24884            0   -905.98559    -3458.053    13.482302    13.395907    13.717595    1.8840148    3245.1467    641.25654 
 1771000    817.42387   -921.56878            0    -907.4103   -4618.4763    13.482302    13.395907    13.717595    2.7007261    3247.0835    639.31207 
 1772000    724.11552    -921.4788            0    -908.9365   -7238.2133    13.482302    13.395907    13.717595    1.8925888    3249.0286    637.36925 
 1773000    847.49478   -920.27702            0   -905.59769   -5610.2193    13.482302    13.395907    13.717595    2.7476573     3250.962    635.42413 
 1774000    888.91145   -923.62493            0   -908.22822   -9280.6567    13.482302    13.395907    13.717595    2.2049514    3252.9581    633.49124 
 1775000    736.31271   -920.73768            0   -907.98411   -3789.8795    13.482302    13.395907    13.717595    2.1845397    3254.9084    631.54939 
 1776000    782.46852   -920.22826            0   -906.67523   -5912.3962    13.482302    13.395907    13.717595    2.5686673    3256.8437    629.60464 
 1777000    719.07109   -921.93315            0   -909.47822   -7044.4902    13.482302    13.395907    13.717595    1.8511102    3258.7884     627.6617 
 1778000    837.95294   -922.29092            0   -907.77686   -7324.6792    13.482302    13.395907    13.717595    1.6800183    3260.7236    625.71692 
 1779000    799.16301   -920.79686            0   -906.95467   -3720.7716    13.482302    13.395907    13.717595    2.6320664    3262.6772    623.77568 
 1780000    765.67556   -922.29511            0   -909.03295    -7681.869    13.482302    13.395907    13.717595    1.8414086    3264.6107    621.83062 
 1781000    734.38624   -921.96465            0   -909.24445   -6687.3994    13.482302    13.395907    13.717595    2.2383221    3266.5537    619.88734 
 1782000    836.32199   -920.79755            0   -906.31173   -5423.5358    13.482302    13.395907    13.717595    2.0625507    3268.4874    617.94233 
 1783000    785.65712   -922.85392            0   -909.24567   -7901.1156    13.482302    13.395907    13.717595    2.6308585    3270.4829    616.00896 
 1784000    776.67746   -922.06826            0   -908.61554   -4274.3054    13.482302    13.395907    13.717595    1.8981154    3272.4294    614.06632 
 1785000    834.23504   -921.84825            0   -907.39858   -4469.2687    13.482302    13.395907    13.717595    2.4079783    3274.3623    612.12114 
 1786000    852.63424   -921.32804            0   -906.55968   -5307.1311    13.482302    13.395907    13.717595    2.3073193    3276.3335    610.18312 
 1787000    761.77664   -922.88105            0   -909.68643   -7366.2999    13.482302    13.395907    13.717595    2.0693686    3278.2658    608.23781 
 1788000    850.35925   -921.63387            0   -906.90492   -2721.3903    13.482302    13.395907    13.717595    2.6468984    3280.2085    606.29446 
 1789000    813.82498   -921.26749            0   -907.17134   -6590.4466    13.482302    13.395907    13.717595    2.8437493    3282.1448    604.34994 
 1790000    734.47572   -921.70006            0   -908.97831   -7136.9909    13.482302    13.395907    13.717595    2.9252164    3284.1186    602.41229 
 1791000    781.32993   -921.45303            0   -907.91972   -6479.4673    13.482302    13.395907    13.717595    1.7738643    3286.0633    600.46929 
 1792000    798.67644   -920.19352            0   -906.35975   -4066.9274    13.482302    13.395907    13.717595    2.6540699    3287.9965    598.52418 
 1793000    735.59798   -922.28439            0   -909.54321   -7246.4528    13.482302    13.395907    13.717595    1.9905419    3289.9842    596.58898 
 1794000     770.6084   -921.46149            0   -908.11389   -7666.4278    13.482302    13.395907    13.717595    2.1329233    3291.9189    594.64414 
 1795000    812.64105   -921.43526            0   -907.35962   -5627.3983    13.482302    13.395907    13.717595    2.4084751    3293.8699    592.70225 
 1796000    768.75329   -923.27511            0   -909.95964   -9806.0814    13.482302    13.395907    13.717595    2.3943487    3295.8011    590.75681 
 1797000    708.51529    -921.4727            0   -909.20061    -8183.892    13.482302    13.395907    13.717595    2.4500849    3297.8021    588.82382 
 1798000    803.82106   -920.98845            0   -907.06558   -5589.4522    13.482302    13.395907    13.717595    2.4954495    3299.7372    586.87905 
 1799000    823.31008   -922.86711            0   -908.60667   -5531.3846    13.482302    13.395907    13.717595    2.3821027    3301.7506    584.94817 
 1800000    754.66474   -922.75182            0   -909.68038   -9010.8198    13.482302    13.395907    13.717595     2.029706    3303.7008    583.00603 
 1801000     867.9916   -922.26287            0    -907.2285   -4518.6069    13.482302    13.395907    13.717595    2.0167711    3305.6407    581.06206 
 1802000    742.94375   -921.26366            0   -908.39524   -4184.7211    13.482302    13.395907    13.717595    2.4788204    3307.5791    579.11784 
 1803000    706.52853    -922.7873            0   -910.54962     -7955.95    13.482302    13.395907    13.717595    1.9143499    3309.5155    577.17328 
 1804000    796.59271    -920.7469            0   -906.94923   -6727.8519    13.482302    13.395907    13.717595    2.4373089    3311.4524    575.22881 
 1805000    866.30854   -922.86417            0   -907.85896   -7547.9532    13.482302    13.395907    13.717595      2.97463    3313.3886    573.28425 
 1806000    775.82995   -923.28663            0   -909.84859    -9350.522    13.482302    13.395907    13.717595    2.5203614    3315.3284     571.3403 
 1807000    760.35033   -919.35251            0   -906.18258   -5543.1517    13.482302    13.395907    13.717595    2.7165068    3317.2673    569.39621 
 1808000    812.40299   -922.82732            0   -908.75581   -6199.4924    13.482302    13.395907    13.717595    2.0146342    3319.2028    567.45154 
 1809000    712.10379   -920.63578            0   -908.30153    -5591.537    13.482302    13.395907    13.717595     2.813027    3321.1368    565.50661 
 1810000    805.53317   -920.18222            0   -906.22969   -6167.0351    13.482302    13.395907    13.717595    2.4843799    3323.0732    563.56212 
 1811000    843.16634   -923.45166            0   -908.84729   -6202.2024    13.482302    13.395907    13.717595    2.3203765    3325.0098    561.61767 
 1812000    789.88771   -921.18428            0   -907.50275   -5346.8779    13.482302    13.395907    13.717595    3.0468347    3326.9448    559.67295 
 1813000    904.77074   -918.78266            0   -903.11125   -539.36328    13.482302    13.395907    13.717595    2.0111016     3328.884    557.72896 
 1814000    857.86905   -922.15078            0   -907.29175   -9092.2276    13.482302    13.395907    13.717595    2.2385997    3330.8259    555.78542 
 1815000    827.10095   -923.31601            0   -908.98991   -6647.9069    13.482302    13.395907    13.717595    2.1124715    3332.7666    553.84169 
 1816000    873.07899   -920.73003            0   -905.60755   -7756.2738    13.482302    13.395907    13.717595    2.2679763    3334.7075    551.89798 
 1817000    785.79345    -920.7991            0   -907.18848   -4016.1547    13.482302    13.395907    13.717595    2.1368089    3336.6422    549.95326 
 1818000     823.9409   -922.49096            0   -908.21959   -7802.6042    13.482302    13.395907    13.717595    2.1139291    3338.5815     548.0093 
 1819000    825.73895   -922.29134            0   -907.98883   -4721.6924    13.482302    13.395907    13.717595    1.7681615     3340.516    546.06457 
 1820000    882.53338   -921.49381            0   -906.20757   -6650.4159    13.482302    13.395907    13.717595    2.5996914    3342.4553    544.12063 
 1821000    731.08652   -921.83077            0   -909.16773   -5283.3549    13.482302    13.395907    13.717595    2.1424312    3344.3946     542.1767 
 1822000    793.78469   -922.05375            0   -908.30471   -6311.5033    13.482302    13.395907    13.717595    2.1588574    3346.3294    540.23205 
 1823000    796.87006   -921.27971            0   -907.47724   -4880.6377    13.482302    13.395907    13.717595    2.3145237    3348.2635    538.28728 
 1824000    810.32103   -922.55002            0   -908.51456   -6957.9194    13.482302    13.395907    13.717595    2.3528568    3350.1974     536.3425 
 1825000    660.18099   -921.83243            0   -910.39753   -6068.2612    13.482302    13.395907    13.717595    2.3908651    3352.1353    534.39839 
 1826000    798.95044   -920.75983            0   -906.92132   -3520.4251    13.482302    13.395907    13.717595     2.152654    3354.0695    532.45367 
 1827000    785.41143   -922.13607            0   -908.53206   -7547.4021    13.482302    13.395907    13.717595    2.1049356    3356.0029    530.50885 
 1828000    716.43379   -923.11735            0    -910.7081   -8020.4472    13.482302    13.395907    13.717595    1.7268377    3357.9372    528.56418 
 1829000    832.82994   -921.51933            0     -907.094   -6979.1616    13.482302    13.395907    13.717595    2.3674521    3359.8748    526.62005 
 1830000    849.52116   -922.02955            0   -907.31511   -6078.9764    13.482302    13.395907    13.717595    2.1814708    3361.8077    524.67519 
 1831000    660.78996    -921.4343            0   -909.98885   -6857.6043    13.482302    13.395907    13.717595    2.1244291    3363.7441    522.73089 
 1832000     860.4053   -921.04362            0   -906.14066   -5373.2332    13.482302    13.395907    13.717595    2.0766062    3365.6773     520.7861 
 1833000    770.07901    -921.8325            0   -908.49407   -6618.1643    13.482302    13.395907    13.717595    1.8748519    3367.6111    518.84141 
 1834000    748.41378   -921.11472            0   -908.15155   -6014.6044    13.482302    13.395907    13.717595    2.6962118    3369.5506    516.89762 
 1835000    826.08138   -920.42892            0   -906.12048   -6905.6719    13.482302    13.395907    13.717595      2.86883    3371.4865    514.95327 
 1836000    804.34748   -922.25564            0   -908.32365   -6288.1266    13.482302    13.395907    13.717595    2.6997436    3373.4245    513.00925 
 1837000    838.93491   -922.13937            0   -907.60829    -7161.199    13.482302    13.395907    13.717595    1.8067846    3375.3601    511.06488 
 1838000    836.50527   -919.94826            0   -905.45927   -2444.4811    13.482302    13.395907    13.717595    2.4329473    3377.2959    509.12055 
 1839000    781.55827   -921.89448            0   -908.35722   -6843.6658    13.482302    13.395907    13.717595    2.6485794    3379.2304    507.17604 
 1840000    781.86325   -920.87112            0   -907.32858   -4804.9626    13.482302    13.395907    13.717595    2.0259658    3381.1678    505.23197 
 1841000    829.53269   -919.96312            0    -905.5949   -2176.5084    13.482302    13.395907    13.717595    2.0669741    3383.1065    503.28811 
 1842000    774.66276    -921.6646            0   -908.24677    -3482.493    13.482302    13.395907    13.717595    2.6728432    3385.0419    501.34375 
 1843000    905.41108   -922.69905            0   -907.01655    -8018.351    13.482302    13.395907    13.717595    2.4302444    3386.9793     499.3997 
 1844000    805.02636   -919.88386            0   -905.94011   -3558.3576    13.482302    13.395907    13.717595    2.8800315    3388.9149     497.4554 
 1845000    814.46469   -923.34977            0   -909.24254   -6739.8716    13.482302    13.395907    13.717595    2.1107552    3390.8468    495.51056 
 1846000    828.74869   -921.04258            0   -906.68794      477.239    13.482302    13.395907    13.717595    2.1939709    3392.7778    493.56561 
 1847000    870.35164   -922.48692            0   -907.41168   -5470.7081    13.482302    13.395907    13.717595    2.9115136    3394.7128    491.62126 
 1848000    791.18047   -922.92982            0    -909.2259   -8238.4841    13.482302    13.395907    13.717595    2.1448816    3396.6498     489.6772 
 1849000    794.63036   -920.16557            0   -906.40188   -3881.9515    13.482302    13.395907    13.717595    3.2045896    3398.5889    487.73346 
 1850000    829.93563   -923.33975            0   -908.96455   -8299.7288    13.482302    13.395907    13.717595    2.2845468    3400.5222    485.78888 
 1851000    775.61201   -922.22287            0    -908.7886   -7459.1106    13.482302    13.395907    13.717595    1.8708932    3402.4549    483.84424 
 1852000     838.3861   -922.14523            0   -907.62366   -5995.0534    13.482302    13.395907    13.717595    2.0106837    3404.3883    481.89971 
 1853000    809.42386   -921.26722            0    -907.2473   -7239.8027    13.482302    13.395907    13.717595    2.2427948    3406.3226    479.95532 
 1854000    800.57847   -922.59668            0   -908.72997   -8754.7418    13.482302    13.395907    13.717595    1.5193949    3408.2553    478.01073 
 1855000    794.93743   -922.34008            0   -908.57108   -7381.1281    13.482302    13.395907    13.717595    2.1886873    3410.1942      476.067 
 1856000    869.05332   -921.24179            0   -906.18904   -5220.7048    13.482302    13.395907    13.717595    2.2231331    3412.1346    474.12348 
 1857000    758.60415   -921.62826            0   -908.48859   -5984.9207    13.482302    13.395907    13.717595    2.2049145    3414.0752    472.18001 
 1858000    858.96615   -922.77061            0   -907.89257   -9907.9926    13.482302    13.395907    13.717595    2.3972618    3416.0094    470.23566 
 1859000     895.0774   -921.55576            0   -906.05225   -4975.9099    13.482302    13.395907    13.717595    1.9684522    3417.9452    468.29153 
 1860000    840.87976   -921.48479            0   -906.92003   -8802.6379    13.482302    13.395907    13.717595    2.0113963    3419.8783    466.34704 
 1861000    758.08844    -921.8394            0   -908.70865   -7495.9387    13.482302    13.395907    13.717595    1.8902281    3421.8117    464.40261 
 1862000    898.47937    -920.9028            0   -905.34037   -7453.2354    13.482302    13.395907    13.717595    2.5964457    3423.7522    462.45916 
 1863000    852.55405   -923.11656            0   -908.34959   -6992.8539    13.482302    13.395907    13.717595    2.7539892    3425.6887    460.51515 
 1864000    731.71058   -921.33738            0   -908.66353   -7255.9167    13.482302    13.395907    13.717595    1.9871385    3427.6286    458.57163 
 1865000    848.71454   -920.75661            0   -906.05615   -6865.0103    13.482302    13.395907    13.717595    2.6470846    3429.5701    456.62831 
 1866000    725.50855   -922.30176            0   -909.73533   -6095.2627    13.482302    13.395907    13.717595    2.6422911    3431.5101     454.6848 
 1867000    911.22857   -923.80303            0   -908.01977   -9565.9445    13.482302    13.395907    13.717595    1.8559326    3433.4504    452.74133 
 1868000    889.98926   -922.25712            0   -906.84174   -5621.8201    13.482302    13.395907    13.717595    2.1049039    3435.3909     450.7979 
 1869000    694.48543   -922.85069            0   -910.82161   -8697.7996    13.482302    13.395907    13.717595    2.2644486    3437.3327    448.85464 
 1870000    784.55784   -921.94972            0   -908.36051   -7088.3112    13.482302    13.395907    13.717595    1.6941275    3439.2796    446.91203 
 1871000      826.003   -921.25987            0   -906.95278   -6036.1362    13.482302    13.395907    13.717595    2.3049484     3441.216    444.96808 
 1872000    742.36523   -923.10186            0   -910.24345    -9099.803    13.482302    13.395907    13.717595    1.8648951      3443.15    443.02382 
 1873000    733.32215    -920.9492            0   -908.24743   -7939.0796    13.482302    13.395907    13.717595    2.5123372    3445.0855    441.07975 
 1874000    833.06071   -921.91281            0   -907.48348   -4966.7042    13.482302    13.395907    13.717595    2.2504652    3447.0233      439.136 
 1875000    757.57707   -922.31985            0   -909.19796   -6881.2998    13.482302    13.395907    13.717595    2.0044818    3448.9558    437.19158 
 1876000    692.56429   -921.42222            0   -909.42641   -7107.2869    13.482302    13.395907    13.717595    2.2926234    3450.8925     435.2477 
 1877000    822.60193   -921.36194            0   -907.11377    -5157.937    13.482302    13.395907    13.717595    2.4989683    3452.8251    433.30332 
 1878000    786.49456   -922.60502            0   -908.98226   -6820.9852    13.482302    13.395907    13.717595    2.1238302    3454.7573     431.3589 
 1879000    732.96228   -922.59332            0   -909.89779   -9141.7729    13.482302    13.395907    13.717595    1.9895722    3456.6938    429.41503 
 1880000    829.87862   -921.24292            0   -906.86871   -6980.6818    13.482302    13.395907    13.717595    2.1597147    3458.6314     427.4713 
 1881000    726.32426   -921.89258            0   -909.31202   -5555.3498    13.482302    13.395907    13.717595    2.1167844    3460.5641    425.52698 
 1882000    917.45824   -922.78538            0   -906.89421   -6782.8288    13.482302    13.395907    13.717595    2.1973361    3462.4995    423.58299 
 1883000    829.71656    -921.6454            0   -907.27399   -8012.6397    13.482302    13.395907    13.717595    2.4196654    3464.4313    421.63858 
 1884000    749.03428   -921.79969            0   -908.82578   -7289.5116    13.482302    13.395907    13.717595    3.1367328    3466.3633    419.69421 
 1885000    884.95811   -919.74012            0   -904.41188   -3749.9179    13.482302    13.395907    13.717595    1.9047369    3468.2981    417.75019 
 1886000    851.64616   -921.18927            0   -906.43803   -4503.7957    13.482302    13.395907    13.717595    2.3555303    3470.2351    415.80645 
 1887000    766.57726   -922.18986            0   -908.91208   -4645.6407    13.482302    13.395907    13.717595    2.1301036    3472.1707    413.86254 
 1888000    860.21371   -921.10206            0   -906.20242   -4029.2108    13.482302    13.395907    13.717595     1.788325    3474.1087    411.91893 
 1889000    830.05353   -921.21681            0   -906.83957   -8584.1546    13.482302    13.395907    13.717595    2.3143579    3476.0415    409.97471 
 1890000    808.39243   -922.03182            0   -908.02976   -7295.0554    13.482302    13.395907    13.717595    2.3774832    3477.9745    408.03053 
 1891000    772.50162    -921.1463            0   -907.76591   -6323.9759    13.482302    13.395907    13.717595    2.6835266    3479.9121    406.08689 
 1892000    948.72939   -922.51635            0   -906.08355   -6545.8276    13.482302    13.395907    13.717595    2.3339291    3481.8461    404.14286 
 1893000    714.69385   -921.51144            0   -909.13233   -7055.7774    13.482302    13.395907    13.717595    1.7291541      3483.78    402.19881 
 1894000    841.26335   -922.57374            0   -908.00233   -7073.3893    13.482302    13.395907    13.717595    2.7302425    3485.7143    400.25482 
 1895000    816.88664   -921.18241            0   -907.03323    -3698.848    13.482302    13.395907    13.717595    2.6204376    3487.6519    398.31122 
 1896000    800.87122    -922.5241            0   -908.65232   -7751.1693    13.482302    13.395907    13.717595    1.5594288    3489.5857     396.3672 
 1897000    834.09729   -922.33766            0   -907.89038     -6343.06    13.482302    13.395907    13.717595    2.3447186    3491.5209    394.42334 
 1898000    869.66436   -921.32401            0   -906.26067   -7556.8248    13.482302    13.395907    13.717595    3.4293935    3493.4552    392.47939 
 1899000    801.14575   -922.90992            0   -909.03339   -7985.3299    13.482302    13.395907    13.717595    2.3391958    3495.3979    390.53639 
 1900000      832.309   -922.24855            0   -907.83224   -5368.2833    13.482302    13.395907    13.717595    3.7996087    3497.3318    388.59243 
 1901000    854.45702     -919.777            0   -904.97707   -3949.0436    13.482302    13.395907    13.717595    2.1584518    3499.2692    386.64884 
 1902000    808.86338   -921.25613            0   -907.24592    -5037.537    13.482302    13.395907    13.717595    1.6865789    3501.2103    384.70568 
 1903000     747.3872   -921.53735            0   -908.59196   -4687.5631    13.482302    13.395907    13.717595    1.9876328    3503.1426    382.76156 
 1904000    841.67884   -920.46396            0   -905.88535   -4868.9785    13.482302    13.395907    13.717595    2.4437913    3505.0785    380.81784 
 1905000    810.66776   -922.10804            0   -908.06658   -6356.5693    13.482302    13.395907    13.717595    1.9603462    3507.0162    378.87432 
 1906000    812.07833   -922.43131            0   -908.36541   -6079.1418    13.482302    13.395907    13.717595    1.7930432    3508.9492    376.93032 
 1907000    914.68232   -922.07953            0   -906.23644   -7444.4646    13.482302    13.395907    13.717595    1.8103783    3510.8814    374.98622 
 1908000    739.78351   -922.60009            0   -909.78641   -8605.0877    13.482302    13.395907    13.717595    2.0528803    3512.8217    373.04301 
 1909000    836.03132   -922.04406            0   -907.56328   -7202.1894    13.482302    13.395907    13.717595    2.1694674    3514.7562    371.09919 
 1910000    802.15997   -921.02243            0   -907.12833   -5735.7475    13.482302    13.395907    13.717595    2.1828041    3516.6913    369.15544 
 1911000    750.27088   -921.16434            0   -908.16901    -6743.071    13.482302    13.395907    13.717595    2.1678786    3518.6257    367.21163 
 1912000     884.4832   -920.40336            0   -905.08335    -4561.824    13.482302    13.395907    13.717595    1.8784435    3520.5622    365.26804 
 1913000     858.8444   -922.00532            0   -907.12939   -6405.1683    13.482302    13.395907    13.717595    2.6719993    3522.5025    363.32485 
 1914000    804.55984   -922.55082            0   -908.61516   -5963.3934    13.482302    13.395907    13.717595    1.9161152    3524.4419    361.38158 
 1915000    818.81336   -920.09147            0   -905.90892   -5223.4123    13.482302    13.395907    13.717595    1.8348087    3526.3793    359.43811 
 1916000    821.88231   -921.66542            0   -907.42971   -6865.3901    13.482302    13.395907    13.717595    1.9095519    3528.3144    357.49442 
 1917000     818.8357   -922.49546            0   -908.31252   -5643.1945    13.482302    13.395907    13.717595    2.1311153    3530.2851     355.5543 
 1918000    930.07861   -922.21813            0   -906.10837   -6122.7105    13.482302    13.395907    13.717595    1.7821338    3532.2422    353.61281 
 1919000    876.13053   -921.03897            0   -905.86364   -4833.0551    13.482302    13.395907    13.717595    2.0841005    3534.1832    351.66969 
 1920000     723.0587   -921.19827            0   -908.67427   -8009.9954    13.482302    13.395907    13.717595    2.9640256    3536.1241    349.72656 
 1921000    818.79413   -920.60474            0   -906.42252    -5822.102    13.482302    13.395907    13.717595    2.4690431    3538.0636     347.7833 
 1922000    793.38546     -921.369            0   -907.62688   -6917.1567    13.482302    13.395907    13.717595    2.6181725    3540.0049    345.84022 
 1923000    706.94942    -920.8078            0   -908.56283   -6496.0352    13.482302    13.395907    13.717595      2.36665    3541.9476    343.89727 
 1924000    876.05235   -921.58346            0   -906.40948   -4922.3879    13.482302    13.395907    13.717595    2.3107325    3543.8895    341.95425 
 1925000    690.67213   -922.07139            0   -910.10836   -6738.0554    13.482302    13.395907    13.717595    2.1372476    3545.8279    340.01089 
 1926000    767.80549   -921.23234            0   -907.93329   -6007.8335    13.482302    13.395907    13.717595    2.8122151    3547.7645    338.06738 
 1927000    860.28578   -922.14026            0   -907.23938   -6360.4041    13.482302    13.395907    13.717595    3.3374682    3549.6969    336.12346 
 1928000    775.09265   -921.84484            0   -908.41957   -7201.4501    13.482302    13.395907    13.717595     2.037542    3551.6305    334.17967 
 1929000    640.12136   -921.62301            0   -910.53556   -5586.4287    13.482302    13.395907    13.717595    2.5053434    3553.5671    332.23618 
 1930000    787.33547   -920.95776            0   -907.32043   -7134.2072    13.482302    13.395907    13.717595    2.1200705    3555.4998    330.29234 
 1931000    828.53985   -922.16543            0    -907.8144   -4569.3058    13.482302    13.395907    13.717595     2.338722    3557.4335    328.34859 
 1932000    755.85972   -923.18375            0   -910.09161   -6697.3146    13.482302    13.395907    13.717595    2.3697991     3559.377    326.40575 
 1933000    885.16384   -922.74395            0   -907.41215   -5222.5524    13.482302    13.395907    13.717595     2.987227    3561.3097    324.46194 
 1934000    737.39275   -920.84714            0   -908.07487   -4395.2426    13.482302    13.395907    13.717595    2.3336991    3563.2467    322.51851 
 1935000    741.66968   -922.64922            0   -909.80287   -8336.0552    13.482302    13.395907    13.717595    2.2629751    3565.1799    320.57476 
 1936000    829.58179   -921.48712            0   -907.11805   -5556.1689    13.482302    13.395907    13.717595    1.7903418    3567.1134    318.63105 
 1937000    846.28671    -921.8256            0   -907.16718   -7066.8982    13.482302    13.395907    13.717595     2.118348    3569.0492    316.68755 
 1938000    693.35944   -922.64066            0   -910.63108   -7362.4419    13.482302    13.395907    13.717595    3.1052665    3570.9961    314.74503 
 1939000    809.49102   -920.52152            0   -906.50044   -6539.5557    13.482302    13.395907    13.717595    3.3581604    3572.9297    312.80135 
 1940000    758.27227   -921.01063            0    -907.8767   -7206.2979    13.482302    13.395907    13.717595    2.4122864    3574.8613    310.85751 
 1941000    749.82017   -922.09105            0   -909.10352   -6863.0648    13.482302    13.395907    13.717595    2.0464286    3576.7946    308.91382 
 1942000    821.65068   -919.91915            0   -905.68745   -4202.7175    13.482302    13.395907    13.717595    2.2156513    3578.7301    306.97034 
 1943000     741.9968   -920.67889            0   -907.82687   -7931.6727    13.482302    13.395907    13.717595    2.1409743    3580.6641    305.02673 
 1944000    847.17375   -922.89739            0   -908.22361    -5401.357    13.482302    13.395907    13.717595     2.385834     3582.597    303.08305 
 1945000    754.84905   -919.44796            0   -906.37333   -3168.3178    13.482302    13.395907    13.717595    1.8231565    3584.5339     301.1397 
 1946000    858.43944   -922.23923            0   -907.37032   -5229.1735    13.482302    13.395907    13.717595     2.254915    3586.4692    299.19624 
 1947000    803.70155   -923.02771            0   -909.10691   -6302.8556    13.482302    13.395907    13.717595    2.3411433    3588.4056    297.25287 
 1948000    829.61844   -919.57511            0    -905.2054   -2660.4851    13.482302    13.395907    13.717595    2.6166913    3590.3455    295.30981 
 1949000    823.56935   -921.57362            0   -907.30869   -4876.0397    13.482302    13.395907    13.717595    2.7664596    3592.2847    293.36668 
 1950000     792.5484   -922.47985            0   -908.75223   -6602.7695    13.482302    13.395907    13.717595    2.4795651    3594.2242    291.42359 
 1951000    884.23695   -920.35087            0   -905.03513   -3679.3692    13.482302    13.395907    13.717595    2.3977846    3596.1587    289.48009 
 1952000    755.57679   -920.69024            0     -907.603   -4958.1351    13.482302    13.395907    13.717595    2.6972421     3598.093    287.53659 
 1953000    754.50898   -921.08893            0   -908.02019   -5239.1527    13.482302    13.395907    13.717595    1.7363988    3600.0401    285.59412 
 1954000    876.35838   -920.17938            0    -905.0001   -3796.9305    13.482302    13.395907    13.717595    1.7864929    3601.9743    283.65062 
 1955000    822.35479   -921.83687            0   -907.59298   -5932.3064    13.482302    13.395907    13.717595    2.3352514    3603.9086    281.70714 
 1956000    828.40604   -922.69702            0   -908.34832   -6194.4285    13.482302    13.395907    13.717595    2.1532177    3605.8505    279.76426 
 1957000    850.94138   -920.26466            0   -905.52562   -6171.5369    13.482302    13.395907    13.717595    2.9648124    3607.8507    277.82587 
 1958000    811.46055   -921.85921            0   -907.80401    -7469.096    13.482302    13.395907    13.717595    2.1269359    3609.8179     275.8849 
 1959000    826.38304   -922.54177            0   -908.22811   -7896.2073    13.482302    13.395907    13.717595    2.2362666    3611.7562     273.9417 
 1960000     889.0378   -921.21743            0   -905.81853   -1669.5317    13.482302    13.395907    13.717595    2.8564521    3613.8112    272.00729 
 1961000     741.0769   -921.73979            0    -908.9037   -5809.3801    13.482302    13.395907    13.717595    2.3972129      3615.75    270.06408 
 1962000    867.14315   -923.19396            0    -908.1743   -6303.2373    13.482302    13.395907    13.717595    2.4443874     3617.693    268.12117 
 1963000    871.90417   -921.46785            0   -906.36573   -5235.6686    13.482302    13.395907    13.717595     1.969482    3619.7003      266.183 
 1964000    792.12441   -921.67869            0   -907.95841   -8570.7813    13.482302    13.395907    13.717595    2.4528977    3621.6593    264.24124 
 1965000    823.60447   -922.05376            0   -907.78822   -7504.2079    13.482302    13.395907    13.717595    2.1897324    3623.6272    262.30009 
 1966000    748.24431   -920.62292            0   -907.66268   -5685.9813    13.482302    13.395907    13.717595    2.5593777    3625.5679    260.35697 
 1967000    800.49905   -921.02496            0   -907.15963   -2795.8337    13.482302    13.395907    13.717595     2.761886    3627.5713    258.41831 
 1968000      825.305   -923.31325            0   -909.01826   -8468.9601    13.482302    13.395907    13.717595    1.8372807    3629.5307    256.47647 
 1969000    781.56203   -922.13659            0   -908.59926   -7988.0397    13.482302    13.395907    13.717595    1.9430009    3631.4648    254.53285 
 1970000    858.72734   -921.41454            0   -906.54065   -7177.2832    13.482302    13.395907    13.717595    1.9766609     3633.425    252.59104 
 1971000    748.89092     -922.074            0   -909.10256   -6713.3165    13.482302    13.395907    13.717595    1.8470072    3635.3759    250.64858 
 1972000    816.92289   -920.23374            0   -906.08393   -3355.0904    13.482302    13.395907    13.717595    2.8315999    3637.3253      248.706 
 1973000    807.19396   -921.42393            0   -907.44264   -7580.6427    13.482302    13.395907    13.717595    1.9763503    3639.2665    246.76287 
 1974000     803.2592   -922.65104            0    -908.7379   -7042.4042    13.482302    13.395907    13.717595    2.9750977    3641.2252     244.8209 
 1975000    887.68347   -920.15195            0   -904.77651    -4345.246    13.482302    13.395907    13.717595    3.1298089    3643.1657    242.87771 
 1976000    780.09555   -919.89381            0   -906.38188   -5039.2363    13.482302    13.395907    13.717595    2.3891499    3645.1057    240.93449 
 1977000    779.00811   -922.26741            0   -908.77432   -8873.0909    13.482302    13.395907    13.717595    2.0296219    3647.0644     238.9925 
 1978000     799.4344   -920.47975            0   -906.63285   -4212.0309    13.482302    13.395907    13.717595    2.0392394    3649.0115    237.04974 
 1979000     801.6667   -920.38086            0   -906.49531    -4152.549    13.482302    13.395907    13.717595    2.2125804    3650.9735    235.10792 
 1980000    777.25186   -921.78652            0   -908.32385   -4150.1139    13.482302    13.395907    13.717595    1.9746476    3652.9226    233.16527 
 1981000    808.48197   -921.54508            0   -907.54148   -6472.8839    13.482302    13.395907    13.717595    2.3519461    3654.8706    231.22254 
 1982000     917.0988   -920.44795            0   -904.56301   -2471.0126    13.482302    13.395907    13.717595    3.7535117     3656.808    229.27914 
 1983000    679.68671   -919.89151            0   -908.11875   -6691.9306    13.482302    13.395907    13.717595    2.0720792    3658.7548    227.33633 
 1984000    773.17189   -921.28376            0   -907.89176   -7109.9174    13.482302    13.395907    13.717595    2.2600259    3660.7199    225.39464 
 1985000    927.11496    -921.1315            0   -905.07307   -3304.4425    13.482302    13.395907    13.717595    2.8618657    3662.6658    223.45176 
 1986000    806.67147    -922.6273            0   -908.65505   -7557.5782    13.482302    13.395907    13.717595    2.1875534     3664.626    221.50974 
 1987000    852.14459   -922.59536            0   -907.83549   -4981.3936    13.482302    13.395907    13.717595    1.9691357    3666.5623    219.56627 
 1988000    824.77269   -918.89409            0   -904.60832   -5136.3106    13.482302    13.395907    13.717595    3.0930109    3668.5146    217.62375 
 1989000    798.43152   -921.75409            0   -907.92457   -4768.1386    13.482302    13.395907    13.717595    2.5453894    3670.5365    215.68531 
 1990000    808.06326    -922.4123            0   -908.41595   -5336.1357    13.482302    13.395907    13.717595    1.7059261    3672.4701    213.74165 
 1991000    894.82535   -921.08734            0   -905.58819   -4391.5594    13.482302    13.395907    13.717595     3.209253    3674.4027    211.79793 
 1992000    652.01638   -920.66707            0   -909.37359   -6900.0306    13.482302    13.395907    13.717595    1.8553726    3676.3367    209.85432 
 1993000    885.52088   -922.74415            0   -907.40616   -6894.0481    13.482302    13.395907    13.717595    1.9837458     3678.269    207.91061 
 1994000    785.07143   -920.72302            0   -907.12491   -4142.0991    13.482302    13.395907    13.717595     2.178899    3680.2033    205.96702 
 1995000    775.89338   -924.67003            0   -911.23089   -9805.7574    13.482302    13.395907    13.717595    2.0472801    3682.1351    204.02332 
 1996000    655.80171   -924.83814            0    -913.4791   -10516.914    13.482302    13.395907    13.717595    1.4866426    3684.0664    202.07959 
 1997000     728.2291   -920.75046            0    -908.1369   -5963.7515    13.482302    13.395907    13.717595    2.4242357    3685.9975    200.13587 
 1998000    795.65925   -919.99796            0   -906.21646   -3576.0532    13.482302    13.395907    13.717595    2.5242291    3687.9326    198.19237 
 1999000    723.60205   -921.59991            0    -909.0665   -6616.6855    13.482302    13.395907    13.717595    3.0740969    3689.8652    196.24876 
 2000000    876.75177   -921.79383            0   -906.60773   -3277.0553    13.482302    13.395907    13.717595    2.3376999     3691.796    194.30505 
 2001000    810.88764   -920.60455            0   -906.55928   -7265.3238    13.482302    13.395907    13.717595    2.6268746     3693.727    192.36138 
 2002000    732.07823   -921.35067            0   -908.67044   -5703.2966    13.482302    13.395907    13.717595    2.7882128     3695.675    190.41859 
 2003000    873.99507   -920.78722            0   -905.64888   -3742.0014    13.482302    13.395907    13.717595    2.1680058    3697.6069    188.47497 
 2004000    882.78955   -921.40945            0   -906.11878   -3807.0651    13.482302    13.395907    13.717595    2.5087591    3699.5426    186.53156 
 2005000    795.99725   -922.22236            0   -908.43501   -6735.7006    13.482302    13.395907    13.717595    3.2940391    3701.4756    184.58802 
 2006000    820.83092   -920.77416            0   -906.55666    -1464.239    13.482302    13.395907    13.717595    2.4767407    3703.4093    182.64453 
 2007000    865.60548   -921.71337            0   -906.72034   -4606.6797    13.482302    13.395907    13.717595    2.4343212    3705.3467    180.70123 
 2008000    795.88345   -922.10888            0   -908.32349   -6041.0905    13.482302    13.395907    13.717595    2.6420707    3707.2803    178.75775 
 2009000    849.59019   -921.67529            0   -906.95966   -9282.4885    13.482302    13.395907    13.717595    2.1937838    3709.2151    176.81434 
 2010000    791.03051    -919.6808            0   -905.97948   -3402.4831    13.482302    13.395907    13.717595    2.1290127    3711.1502    174.87095 
 2011000    784.31812    -922.3582            0   -908.77314   -7091.7807    13.482302    13.395907    13.717595    2.4423345    3713.0842    172.92752 
 2012000    886.27231   -921.92734            0   -906.57634   -3497.1424    13.482302    13.395907    13.717595    2.3147749    3715.0163    170.98401 
 2013000    845.11858   -921.21474            0   -906.57656   -3713.0366    13.482302    13.395907    13.717595    2.3610726    3716.9545    169.04079 
 2014000    778.40098   -922.63408            0    -909.1515    -7332.413    13.482302    13.395907    13.717595     1.613841    3718.8876    167.09735 
 2015000    782.23453   -919.78856            0   -906.23959   -4345.0503    13.482302    13.395907    13.717595    2.2067878    3720.8196    165.15387 
 2016000    724.69889    -921.9099            0   -909.35749   -6173.9037    13.482302    13.395907    13.717595    2.8356316    3722.7537     163.2105 
 2017000    825.95026   -922.75649            0   -908.45032   -7977.9206    13.482302    13.395907    13.717595    2.4881438     3724.687     161.2671 
 2018000    774.99294   -919.97074            0    -906.5472   -2195.7632    13.482302    13.395907    13.717595    2.8718068    3726.6216    159.32376 
 2019000    687.84949   -922.04926            0   -910.13512   -6388.1186    13.482302    13.395907    13.717595     2.110756    3728.5536    157.38032 
 2020000    835.82417   -922.75763            0   -908.28043    -6720.882    13.482302    13.395907    13.717595     1.804068    3730.4882    155.43701 
 2021000    845.38801   -921.87167            0   -907.22882   -8112.6213    13.482302    13.395907    13.717595    2.5435073    3732.4238    153.49374 
 2022000    721.81818   -922.57243            0   -910.06992   -9570.5831    13.482302    13.395907    13.717595    2.1232256    3734.3571    151.55039 
 2023000    714.05809   -921.62034            0   -909.25224   -5333.8194    13.482302    13.395907    13.717595    3.0215345    3736.2909    149.60707 
 2024000    827.30639   -921.59811            0   -907.26845   -4810.8128    13.482302    13.395907    13.717595    2.8273626    3738.2234    147.66371 
 2025000    721.59012   -920.51427            0   -908.01571   -7819.3501    13.482302    13.395907    13.717595    2.0170132    3740.1575    145.72042 
 2026000    786.88489   -923.20881            0   -909.57929   -8373.3711    13.482302    13.395907    13.717595     2.751573     3742.095    143.77728 
 2027000    851.10271   -921.42196            0   -906.68013   -5470.8976    13.482302    13.395907    13.717595    2.0075083    3744.0362    141.83427 
 2028000    801.39508    -922.2746            0   -908.39375   -7609.1481    13.482302    13.395907    13.717595    2.4546216     3745.974    139.89115 
 2029000    665.84383   -922.93602            0   -911.40304   -6264.6641    13.482302    13.395907    13.717595    2.3734426    3747.9059    137.94781 
 2030000    739.01595   -921.05868            0   -908.25829   -6824.6877    13.482302    13.395907    13.717595    2.3145161    3749.8387    136.00451 
 2031000    788.10575   -920.77161            0   -907.12094   -3176.9421    13.482302    13.395907    13.717595    2.3817001    3751.7701    134.06118 
 2032000    833.91157   -923.81276            0    -909.3687   -8865.7334    13.482302    13.395907    13.717595    2.1079933    3753.7048    132.11798 
 2033000     838.0551   -922.81663            0    -908.3008   -5371.8486    13.482302    13.395907    13.717595    2.4682759    3755.6372     130.1747 
 2034000    818.50489   -921.19905            0   -907.02185   -5627.6646    13.482302    13.395907    13.717595    3.4363901    3757.5722    128.23152 
 2035000    715.69654   -921.88725            0   -909.49078   -6483.6149    13.482302    13.395907    13.717595    1.3908057    3759.5126    126.28854 
 2036000    811.80236   -920.20786            0   -906.14675    -5137.522    13.482302    13.395907    13.717595    2.6014816    3761.4538    124.34558 
 2037000    809.78711   -921.86819            0   -907.84198   -5162.2354    13.482302    13.395907    13.717595    2.3500636    3763.3932    122.40257 
 2038000    839.95016     -923.352            0   -908.80334   -5627.3385    13.482302    13.395907    13.717595    2.5779102    3765.3275    120.45939 
 2039000    786.90287   -920.52323            0    -906.8934   -3424.1134    13.482302    13.395907    13.717595    2.3332965    3767.2643    118.51631 
 2040000    957.74742   -920.67213            0   -904.08312   -4339.4929    13.482302    13.395907    13.717595     2.296884    3769.1979    116.57313 
 2041000    766.59144   -921.58024            0   -908.30222   -7977.9338    13.482302    13.395907    13.717595    2.0706742    3771.1294     114.6299 
 2042000     731.1159   -920.74936            0   -908.08581   -7446.4565    13.482302    13.395907    13.717595    2.3229581    3773.0631    112.68675 
 2043000    855.07243   -920.32967            0   -905.51908   -5272.5726    13.482302    13.395907    13.717595     2.499863    3775.0056    110.74386 
 2044000    749.62677   -921.56294            0   -908.57876   -7538.4944    13.482302    13.395907    13.717595    2.1574297    3776.9388    108.80071 
 2045000    717.72548   -919.81011            0   -907.37848   -2253.6062    13.482302    13.395907    13.717595    2.4500523    3778.8727    106.85758 
 2046000    858.85786    -921.6173            0   -906.74115   -5015.5148    13.482302    13.395907    13.717595    2.2074178    3780.8034    104.91438 
 2047000    666.20402   -921.23107            0   -909.69184   -6933.8667    13.482302    13.395907    13.717595    2.7013638    3782.7369    102.97127 
 2048000      836.431   -921.34972            0   -906.86202   -4631.8831    13.482302    13.395907    13.717595    2.2237238    3784.6711    101.02818 
 2049000    838.65975   -922.05131            0     -907.525   -8949.6574    13.482302    13.395907    13.717595    2.0407459    3786.6088    99.085197 
 2050000    654.84171   -921.40123            0   -910.05881   -6028.1328    13.482302    13.395907    13.717595    2.2366394    3788.5505    97.142321 
 2051000    725.40456   -921.55857            0   -908.99394   -5115.7472    13.482302    13.395907    13.717595    1.8665249    3790.4825    95.199202 
 2052000    800.01872   -920.83735            0   -906.98034   -5117.3449    13.482302    13.395907    13.717595    2.3071049    3792.4166    93.256145 
 2053000    739.21501   -921.74934            0    -908.9455   -4289.5929    13.482302    13.395907    13.717595    2.4826276    3794.3505    91.313095 
 2054000    808.52158   -922.77959            0    -908.7753   -5840.1483    13.482302    13.395907    13.717595    2.6486983    3796.2842    89.370049 
 2055000    751.04739   -919.59958            0   -906.59079   -4534.5429    13.482302    13.395907    13.717595    2.0449965     3798.217     87.42699 
 2056000      764.856   -922.49299            0   -909.24502   -5871.1753    13.482302    13.395907    13.717595    1.9631138    3800.1486    85.483916 
 2057000    828.31309   -920.03711            0   -905.69002   -3759.5347    13.482302    13.395907    13.717595    2.3299021    3802.0832    83.540918 
 2058000    812.25022    -921.6759            0   -907.60703   -6591.2924    13.482302    13.395907    13.717595    1.6350184    3804.0173     81.59792 
 2059000    810.71987   -922.79324            0   -908.75088   -7253.3971    13.482302    13.395907    13.717595    2.3388563    3805.9516    79.654934 
 2060000    918.83875   -920.53837            0   -904.62329   -4156.1385    13.482302    13.395907    13.717595    2.9254474    3807.8867    77.711974 
 2061000    805.87548   -920.96953            0   -907.01108   -7439.0576    13.482302    13.395907    13.717595    2.0922568    3809.8181    75.768947 
 2062000    730.68431   -921.09222            0   -908.43614   -4157.2925    13.482302    13.395907    13.717595    2.2229143    3811.7544    73.826029 
 2063000    848.37404   -920.70629            0   -906.01172   -1610.9728    13.482302    13.395907    13.717595     2.222652    3813.6897    71.883096 
 2064000    792.17818   -921.06729            0   -907.34609   -4011.9021    13.482302    13.395907    13.717595    2.7200507    3815.6207    69.940094 
 2065000    795.67156   -922.13221            0   -908.35049   -7287.6071    13.482302    13.395907    13.717595    2.0746911    3817.5534    67.997134 
 2066000    840.13476   -920.74884            0   -906.19698   -6501.2741    13.482302    13.395907    13.717595    1.9044461    3819.4886    66.054228 
 2067000    876.36928    -920.8953            0   -905.71584   -2623.5428    13.482302    13.395907    13.717595    1.9068164    3821.4259    64.111365 
 2068000    785.97761   -921.73007            0   -908.11627   -5349.3403    13.482302    13.395907    13.717595    1.8844391    3823.3684    62.168591 
 2069000    817.32069   -922.13168            0   -907.97498   -5088.0168    13.482302    13.395907    13.717595    2.3484569    3825.3049    60.225725 
 2070000    862.37487   -920.49829            0   -905.56121   -4015.1616    13.482302    13.395907    13.717595    2.0988598    3827.2393    58.282833 
 2071000    750.60841   -922.19455            0   -909.19336   -6700.5963    13.482302    13.395907    13.717595    2.6074006    3829.1718    56.339921 
 2072000     823.2945   -921.54125            0   -907.28108   -4371.7593    13.482302    13.395907    13.717595    2.0052334    3831.1046    54.397023 
 2073000    847.24968   -922.43058            0   -907.75549   -6180.5337    13.482302    13.395907    13.717595    2.3467408    3833.0468    52.454264 
 2074000    764.47833    -922.7701            0   -909.52867   -6437.9159    13.482302    13.395907    13.717595    2.0499321    3834.9822    50.511416 
 2075000    860.77813   -921.68269            0   -906.77328    -6014.572    13.482302    13.395907    13.717595    1.9420796     3836.916    48.568557 
 2076000    768.08462   -921.95227            0   -908.64838   -4873.2945    13.482302    13.395907    13.717595    3.0712877    3838.8503    46.625713 
 2077000     748.1296   -923.17075            0    -910.2125   -8003.8911    13.482302    13.395907    13.717595    2.2476476    3840.7799    44.682821 
 2078000    763.13167   -920.97208            0   -907.75399   -5387.6285    13.482302    13.395907    13.717595    2.2581516    3842.7129    42.739982 
 2079000     820.1856   -921.47273            0   -907.26641   -6813.2182    13.482302    13.395907    13.717595    2.2079168    3844.6482    40.797176 
 2080000    804.61171   -924.14072            0   -910.20415    -8303.797    13.482302    13.395907    13.717595    2.4272988    3846.5827     38.85437 
 2081000    832.22758   -921.69182            0   -907.27692   -5894.8923    13.482302    13.395907    13.717595    1.9575659    3848.5159    36.911561 
 2082000    840.10785   -922.32628            0   -907.77489   -5915.2376    13.482302    13.395907    13.717595    3.0973586    3850.4501     34.96877 
 2083000    715.11397    -923.3754            0   -910.98901   -8142.1169    13.482302    13.395907    13.717595    2.7790117    3852.3932    33.026064 
 2084000    785.83167   -921.12009            0   -907.50881   -6179.4767    13.482302    13.395907    13.717595     3.215105    3854.3241    31.083259 
 2085000    760.23545   -920.61953            0    -907.4516   -6029.6693    13.482302    13.395907    13.717595    3.0826434    3856.2592    29.140498 
 2086000    760.69462   -922.62007            0   -909.44419   -6220.1763    13.482302    13.395907    13.717595    2.0371347    3858.1909     27.19772 
 2087000    800.67919   -921.52751            0   -907.65906    -6644.677    13.482302    13.395907    13.717595    2.5308843    3860.1224    25.254953 
 2088000     852.8668   -921.45067            0   -906.67829   -5290.4989    13.482302    13.395907    13.717595    3.5170466    3862.0613    23.312241 
 2089000    761.55916   -922.78233            0   -909.59147   -7327.3065    13.482302    13.395907    13.717595    2.8736406    3863.9971    21.369517 
 2090000     932.5504   -921.87535            0   -905.72277   -2868.2869    13.482302    13.395907    13.717595    2.4347778    3865.9298    19.426783 
 2091000    845.87801   -922.56365            0   -907.91231   -6423.6964    13.482302    13.395907    13.717595    2.2750677     3867.865    17.484071 
 2092000     754.3683   -921.80649            0   -908.74018    -6601.918    13.482302    13.395907    13.717595    2.4432729    3869.8013    15.541371 
 2093000    886.47147    -920.6051            0   -905.25066   -4123.2679    13.482302    13.395907    13.717595    2.6086046    3871.7394    13.598683 
 2094000    749.56079    -920.8481            0   -907.86506   -5738.3232    13.482302    13.395907    13.717595    1.9421961    3873.6754    11.655994 
 2095000    803.30144   -922.07111            0   -908.15724   -5756.5911    13.482302    13.395907    13.717595    1.8325775    3875.6075     9.713302 
 2096000    823.77622   -918.68197            0   -904.41346   -2921.9141    13.482302    13.395907    13.717595    2.6668228    3877.5414    7.7706241 
 2097000    789.10955     -921.306            0   -907.63794    -3881.559    13.482302    13.395907    13.717595    2.2909867    3879.4747     5.827954 
 2098000    736.61553   -921.13571            0   -908.37689   -4312.5686    13.482302    13.395907    13.717595    2.3479822    3881.4075    3.8852928 
 2099000    868.55548   -920.41827            0   -905.37414   -2575.0775    13.482302    13.395907    13.717595    2.2350162    3883.3409    1.9426418 
 2100000    749.98075   -921.31873            0   -908.32842   -3813.0563    13.482302    13.395907    13.717595    1.8677967    3885.2843            0 
Loop time of 3885.28 on 1 procs for 2000000 steps with 135 atoms

Performance: 44.476 ns/day, 0.540 hours/ns, 514.763 timesteps/s
99.9% CPU use with 1 MPI tasks x no OpenMP threads

MPI task timing breakdown:
Section |  min time  |  avg time  |  max time  |%varavg| %total
---------------------------------------------------------------
Pair    | 2651       | 2651       | 2651       |   0.0 | 68.23
Kspace  | 1154.7     | 1154.7     | 1154.7     |   0.0 | 29.72
Neigh   | 31.997     | 31.997     | 31.997     |   0.0 |  0.82
Comm    | 34.064     | 34.064     | 34.064     |   0.0 |  0.88
Output  | 0.59394    | 0.59394    | 0.59394    |   0.0 |  0.02
Modify  | 6.1389     | 6.1389     | 6.1389     |   0.0 |  0.16
Other   |            | 6.8        |            |       |  0.18

Nlocal:        135.000 ave         135 max         135 min
Histogram: 1 0 0 0 0 0 0 0 0 0
Nghost:        3975.00 ave        3975 max        3975 min
Histogram: 1 0 0 0 0 0 0 0 0 0
Neighs:        42267.0 ave       42267 max       42267 min
Histogram: 1 0 0 0 0 0 0 0 0 0

Total # of neighbors = 42267
Ave neighs/atom = 313.08889
Neighbor list builds = 28860
Dangerous builds = 0

# Final Commands
variable final_energy equal etotal
print "final_energy: ${final_energy}"
final_energy: -908.328420674148
print "END_OF_COMP"
END_OF_COMP
Total wall time: 1:08:36
