LAMMPS (10 Feb 2021)
# Input written to comply with LAMMPS 2017-08-11 00:00:00

# Atomic Configuration
units           metal
boundary        p p p
box tilt large
atom_style      charge
read_data       na3ocl.lmp
Reading data file ...
  orthogonal box = (0.0000000 0.0000000 0.0000000) to (13.503000 13.503000 13.503000)
  1 by 1 by 1 MPI processor grid
  reading atoms ...
  129 atoms
  read_data CPU = 0.001 seconds

# Potential Setup
pair_style  buck/coul/long 12.0
pair_coeff * * 0.0 1.0 0.0
pair_coeff 1 1    1788.190000  0.159000   0.000000 # Na Na
pair_coeff 1 3    1170.410000  0.315000   0.000000 # Na Cl
pair_coeff 1 2     588.380000  0.338000   0.000000 # Na O
pair_coeff 3 3    1227.200000  0.321000  14.530000 # Cl Cl
pair_coeff 2 3    8286.910000  0.259000  62.200000 # Cl O
pair_coeff 2 2   22764.300000  0.149000  13.190000 # O  O
kspace_style pppm 1e-05

# General Setup
timestep        0.001

# Thermodynamic Information Output
thermo_style custom step temp epair emol etotal press lx ly lz fmax cpu cpuremain
thermo          1000

# Intial Atom Velocity
velocity all create 800 80800 dist gaussian rot yes

# Stage 0: npt_equilibriation
restart         0
fix             int all npt aniso 1.0 1.0 0.1 temp 800 800 0.5
run             50000
PPPM initialization ...
  using 12-bit tables for long-range coulomb (../kspace.cpp:339)
  G vector (1/distance) = 0.27805162
  grid = 15 15 15
  stencil order = 5
  estimated absolute RMS force accuracy = 6.1260485e-05
  estimated relative force accuracy = 4.2543052e-06
  using double precision KISS FFT
  3d grid and FFT values/proc = 10648 3375
Neighbor list info ...
  update every 1 steps, delay 10 steps, check yes
  max neighbors/atom: 2000, page size: 100000
  master list distance cutoff = 14
  ghost atom cutoff = 14
  binsize = 7, bins = 2 2 2
  1 neighbor lists, perpetual/occasional/extra = 1 0 0
  (1) pair buck/coul/long, perpetual
      attributes: half, newton on
      pair build: half/bin/atomonly/newton
      stencil: half/bin/3d/newton
      bin: standard
Per MPI rank memory allocation (min/avg/max) = 4.399 | 4.399 | 4.399 Mbytes
Step Temp E_pair E_mol TotEng Press Lx Ly Lz Fmax CPU CPULeft 
       0          800    -890.8039            0   -877.56766   -18966.951       13.503       13.503       13.503    4.5079397            0            0 
    1000    871.11696   -894.77883            0   -880.36594    1725.5054    13.551515    13.443535    13.199886    2.2798153    2.5663531     125.7513 
    2000    693.64596   -893.64509            0   -882.16851   -3837.1358    13.607922    13.472646    13.427356    1.9000446     5.154779    123.71469 
    3000     846.8594    -893.2718            0   -879.26026     5791.515    13.334127    13.472435     13.40546    2.3219926    7.6864049    120.42034 
    4000    789.88029   -892.68752            0   -879.61871    -3799.711    13.802113    13.296484    13.436978    2.9867204    10.251968    117.89763 
    5000    638.29654    -893.5728            0   -883.01199   -3286.8187    13.798687    13.344736    13.319393    2.3953803    12.777051    114.99347 
    6000    863.43885   -893.51427            0   -879.22841   -1656.7194    13.223636    13.340602    13.680572    1.7192717    15.359605     112.6371 
    7000    848.85918   -893.69335            0   -879.64872    4613.6469    13.464589    13.234442    13.430577    2.5914792    17.888596     109.8871 
    8000    794.60695   -894.79929            0   -881.65228   -3067.8515    13.484155    13.610789    13.292356    2.0347528    20.411743    107.16166 
    9000    877.44623   -893.49531            0    -878.9777   -386.63303    13.479265    13.395602    13.428568     2.862764    23.044343    104.97979 
   10000    758.12519   -892.78721            0    -880.2438   -4305.4069    13.740115    13.471787    13.290977    2.5142967     25.61431    102.45724 
   11000    770.67904   -894.70336            0   -881.95225    1689.3125    13.362734     13.40577    13.348264    2.2791861    28.133168    99.744872 
   12000    830.31942   -893.02509            0   -879.28721    4365.8649    13.391973    13.391428    13.443538    2.7847916    30.650608    97.060259 
   13000    797.72472   -893.36723            0   -880.16864   -5613.9656    13.492737    13.328892    13.693839    2.5784836    33.171311    94.410657 
   14000    814.24549   -894.99859            0   -881.52666    179.48615    13.285461    13.522814    13.456846    2.0979935     35.70104    91.802677 
   15000     804.0991   -893.41129            0   -880.10723   -2851.4893    13.306992    13.429517    13.601818    2.2124796    38.230252    89.203924 
   16000     945.6299   -893.39448            0   -877.74875   -1572.9319    13.608934    13.506611     13.34405    2.3001201    40.747912    86.589313 
   17000    848.09744   -894.20315            0   -880.17113    3734.0197    13.503324    13.317981    13.320563    2.5732014    43.268013    83.990851 
   18000    727.64279   -892.97646            0    -880.9374    -4325.194    13.747076    13.333451    13.377478    3.2175753    45.797147    81.417152 
   19000    790.87762   -893.62001            0   -880.53471   -1193.6053    13.481004     13.30463    13.572926    3.4037668    48.326964    78.849259 
   20000    935.36068   -893.84216            0   -878.36634   -3571.7396    13.568543    13.368878    13.581299    2.6370367    50.851333    76.277001 
   21000    818.43188   -894.66176            0   -881.12056   -4625.6302    13.706211    13.495591    13.299765    3.6702875    53.373035    73.705621 
   22000    818.48528   -893.51597            0   -879.97389   -1173.0452    13.488442    13.317469    13.669114     1.820034    55.890391    71.133226 
   23000     905.1217   -892.43235            0   -877.45684    -1720.174    13.672441     13.43634    13.348577    2.9590502    58.406486    68.564137 
   24000    743.64807   -893.47883            0   -881.17495    -2857.161    13.519748    13.302488    13.548203    2.4464435    60.950033    66.029202 
   25000    749.78116   -893.17409            0   -880.76874   -4278.4189    13.374586    13.524183    13.544622    1.9313893    63.472988    63.472989 
   26000    767.08193   -895.01967            0   -882.32807    982.66117    13.393746    13.464746    13.466385    2.4739505    65.996211    60.919579 
   27000    891.90354   -894.51882            0   -879.76201    3562.1669    13.288585     13.32139    13.546965     2.167138    68.525649    58.373701 
   28000    869.98435   -893.61614            0   -879.22199    5443.2663     13.58239    13.307727    13.197287    2.0372552    71.041739     55.81851 
   29000    764.77711   -893.95638            0   -881.30292   -5608.2252    13.349741    13.601101    13.485748    2.1599557    73.575649    53.278919 
   30000    708.32942   -891.89592            0    -880.1764    1767.3018    13.611739    13.367373    13.239195    2.0875576      76.1698    50.779867 
   31000    913.22179   -893.41694            0   -878.30741   -1278.8484    13.159006    13.518163    13.632671     2.048735    78.756168     48.26991 
   32000    824.06637    -895.5907            0   -881.95627    1360.9033    13.520485    13.348463    13.285447     2.143749    81.357323    45.763494 
   33000    855.63683   -894.17463            0   -880.01786   -2054.1924    13.497888     13.32441    13.510823    1.9788804    83.960681    43.252473 
   34000    854.20986   -892.82314            0   -878.68998     918.3251     13.42874      13.1041    13.803698    2.3980814    86.600851    40.753342 
   35000    734.13794   -894.31472            0   -882.16819    327.47673    13.661754    13.052162    13.618202    1.7521372    89.243892    38.247383 
   36000    934.72393   -894.15928            0   -878.69399   -14.600216    13.297348     13.53111    13.532626    2.1199369    91.787073    35.694973 
   37000    735.88016   -894.12941            0   -881.95405   -4130.6895    13.533306    13.278391    13.511244    1.8663071    94.303911    33.133807 
   38000    762.74197   -894.09574            0   -881.47595   -3888.4476    13.458143    13.425528    13.459366     2.348876    96.845773    30.582876 
   39000    859.04898   -893.30454            0   -879.09132   -5808.5675     13.59075    13.531111     13.42142    2.2022942     99.37641    28.029244 
   40000    706.13557   -894.32104            0   -882.63782    -1361.314    13.417476    13.568834    13.375773    3.0721977      101.913    25.478249 
   41000    730.07347   -892.92677            0   -880.84749   -350.80238    13.310068    13.471707    13.538129    2.8148186    104.44043    22.925949 
   42000    815.24571   -893.08939            0    -879.6009    -3716.307    13.717829    13.471879    13.284622    2.0348545    106.96769    20.374799 
   43000    714.47258   -894.64636            0    -882.8252   -5453.5201    13.429475    13.408764    13.605328    2.9058035    109.49787    17.825235 
   44000     797.8525   -894.49355            0   -881.29284   -1929.4638     13.31709    13.480347    13.526404    2.3951273    112.02834    15.276592 
   45000    805.58061   -893.18212            0   -879.85354    1561.4615    13.421333     13.41395    13.381681    4.1600422    114.55485    12.728317 
   46000    777.07382   -894.85748            0   -882.00056   -6921.8963    13.644131    13.458953    13.492476     2.560728    117.07663    10.180576 
   47000    711.26348   -892.99483            0   -881.22676   -1570.3933    13.417762    13.416205    13.427941    2.8294242    119.61283    7.6348616 
   48000    873.18934   -893.71565            0   -879.26847    2492.1043    13.334982    13.608716    13.358352    2.1225976    122.13199    5.0888329 
   49000    795.12641   -895.30855            0   -882.15295   -8851.2299    13.607454    13.541706    13.332688    2.3637508    124.64707    2.5438178 
   50000    772.16009   -894.07249            0   -881.29687   -7167.9258    13.440161    13.567181    13.463008    2.3947707    127.16789            0 
Loop time of 127.168 on 1 procs for 50000 steps with 129 atoms

Performance: 33.971 ns/day, 0.706 hours/ns, 393.181 timesteps/s
99.9% CPU use with 1 MPI tasks x no OpenMP threads

MPI task timing breakdown:
Section |  min time  |  avg time  |  max time  |%varavg| %total
---------------------------------------------------------------
Pair    | 63.02      | 63.02      | 63.02      |   0.0 | 49.56
Kspace  | 29.881     | 29.881     | 29.881     |   0.0 | 23.50
Neigh   | 1.0327     | 1.0327     | 1.0327     |   0.0 |  0.81
Comm    | 0.85872    | 0.85872    | 0.85872    |   0.0 |  0.68
Output  | 0.0012727  | 0.0012727  | 0.0012727  |   0.0 |  0.00
Modify  | 32.185     | 32.185     | 32.185     |   0.0 | 25.31
Other   |            | 0.1894     |            |       |  0.15

Nlocal:        129.000 ave         129 max         129 min
Histogram: 1 0 0 0 0 0 0 0 0 0
Nghost:        3820.00 ave        3820 max        3820 min
Histogram: 1 0 0 0 0 0 0 0 0 0
Neighs:        39325.0 ave       39325 max       39325 min
Histogram: 1 0 0 0 0 0 0 0 0 0

Total # of neighbors = 39325
Ave neighs/atom = 304.84496
Neighbor list builds = 1007
Dangerous builds = 0

# Stage 1: nvt_equilibriation
unfix int
restart         0
fix             int all nvt temp 800 800 0.5
run             50000
PPPM initialization ...
  using 12-bit tables for long-range coulomb (../kspace.cpp:339)
  G vector (1/distance) = 0.27809477
  grid = 15 15 15
  stencil order = 5
  estimated absolute RMS force accuracy = 6.1117994e-05
  estimated relative force accuracy = 4.2444098e-06
  using double precision KISS FFT
  3d grid and FFT values/proc = 10648 3375
Per MPI rank memory allocation (min/avg/max) = 4.399 | 4.399 | 4.399 Mbytes
Step Temp E_pair E_mol TotEng Press Lx Ly Lz Fmax CPU CPULeft 
   50000    772.16009    -894.0725            0   -881.29688   -7167.9884    13.440161    13.567181    13.463008    2.3947708            0            0 
   51000    840.97102   -892.42918            0   -878.51507   -545.98957    13.440161    13.567181    13.463008    2.6235957    1.8571332    90.999524 
   52000    771.60694   -891.50971            0   -878.74325   -1065.9327    13.440161    13.567181    13.463008     3.168964     3.716763    89.202312 
   53000    770.11621   -893.12588            0   -880.38408    -1084.104    13.440161    13.567181    13.463008    2.5847914    5.5696001    87.257068 
   54000    768.30675   -893.44132            0   -880.72946   -3851.3415    13.440161    13.567181    13.463008     2.418942    7.4215941    85.348333 
   55000    865.31602   -892.62675            0   -878.30984   -3127.3172    13.440161    13.567181    13.463008    2.4864352     9.280005    83.520045 
   56000    787.92058   -893.96487            0   -880.92849   -2282.4273    13.440161    13.567181    13.463008    1.8964219    11.134055    81.649745 
   57000    811.67905   -894.35768            0   -880.92821    -3255.058    13.440161    13.567181    13.463008     1.489668    12.987473    79.780199 
   58000    762.74936   -892.05969            0   -879.43977   -2240.8157    13.440161    13.567181    13.463008    2.4596692     14.83588     77.88837 
   59000    917.00473   -894.96324            0   -879.79112   -4270.7333    13.440161    13.567181    13.463008    2.5276185    16.686218    76.014998 
   60000    732.76283   -893.39724            0   -881.27346   -2504.4361    13.440161    13.567181    13.463008     2.412301    18.541781    74.167129 
   61000    763.34619    -894.3228            0   -881.69301   -4301.6856    13.440161    13.567181    13.463008    2.4810025    20.396483    72.314807 
   62000    877.04017    -893.5911            0   -879.08021    -2601.536    13.440161    13.567181    13.463008    1.8946644    22.251194    70.462118 
   63000    724.73846    -893.4798            0   -881.48879   -3335.2825    13.440161    13.567181    13.463008    1.8873254    24.102921    68.600625 
   64000    743.90694   -893.77321            0   -881.46505   -4721.9307    13.440161    13.567181    13.463008    1.9582671    25.954447    66.740009 
   65000    870.19664   -893.07592            0   -878.67826   -1778.6194    13.440161    13.567181    13.463008     2.033624    27.809155    64.888031 
   66000    800.32063   -894.68456            0   -881.44301   -5015.4091    13.440161    13.567181    13.463008    2.0153695     29.66187    63.031474 
   67000    804.37836   -892.84364            0   -879.53496   -4546.3291    13.440161    13.567181    13.463008    1.8980204    31.520362    61.186585 
   68000    806.92152   -892.42996            0    -879.0792   -2009.7768    13.440161    13.567181    13.463008    2.2861384    33.376609    59.336196 
   69000    819.94441   -894.85894            0   -881.29271   -6151.3154    13.440161    13.567181    13.463008    2.3290129    35.227766    57.476883 
   70000     974.6657   -893.86668            0   -877.74055   -3871.6925    13.440161    13.567181    13.463008     1.716114    37.083428    55.625144 
   71000    872.85431   -893.73782            0   -879.29619   -3459.8556    13.440161    13.567181    13.463008    1.6880362    38.937993    53.771516 
   72000    794.86046   -893.84475            0   -880.69354   -5478.1415    13.440161    13.567181    13.463008    2.0172026    40.794742    51.920582 
   73000    807.32429   -890.98991            0   -877.63249    -3360.477    13.440161    13.567181    13.463008    2.7296635    42.646635    50.063442 
   74000    855.80882   -892.99977            0   -878.84016   -1157.2226    13.440161    13.567181    13.463008    2.1881044    44.544144    48.256156 
   75000    773.69841   -893.10317            0   -880.30209   -4243.2309    13.440161    13.567181    13.463008    2.3681866     46.39986    46.399861 
   76000    877.90687   -893.98355            0   -879.45832   -5973.7392    13.440161    13.567181    13.463008    3.7091242    48.259998    44.547691 
   77000    882.99756   -892.95601            0   -878.34655   -3292.1536    13.440161    13.567181    13.463008    2.4463019    50.124497    42.698647 
   78000    719.77822   -892.96501            0   -881.05606   -6543.4654    13.440161    13.567181    13.463008    2.7848182    51.990253    40.849485 
   79000    846.64032   -893.40535            0   -879.39743   -1243.5826    13.440161    13.567181    13.463008    1.9811203    53.854145     38.99783 
   80000    959.48874   -891.45669            0   -875.58167    556.32579    13.440161    13.567181    13.463008     2.123621    55.720781    37.147188 
   81000    802.60376   -892.96785            0   -879.68853   -1836.6879    13.440161    13.567181    13.463008    2.8045349    57.578238    35.289889 
   82000     748.9328   -893.84765            0   -881.45633   -3365.7997    13.440161    13.567181    13.463008    2.3538413    59.430018    33.429386 
   83000    779.96778   -891.71136            0   -878.80656   -1447.2582    13.440161    13.567181    13.463008    2.3830266    61.290486    31.573887 
   84000     850.6697   -893.65228            0   -879.57769    -2899.861    13.440161    13.567181    13.463008    2.5326249     63.14824    29.716819 
   85000    777.17333   -893.34843            0   -880.48987   -4900.7286    13.440161    13.567181    13.463008    3.1288534    65.008316    27.860707 
   86000    856.82824    -894.3718            0   -880.19532   -3961.3171    13.440161    13.567181    13.463008    2.1188641    66.864618    26.002907 
   87000    907.64057   -893.47357            0   -878.45639   -1967.0063    13.440161    13.567181    13.463008    1.9994686    68.718599    24.144373 
   88000    762.55132   -894.17032            0   -881.55368   -2641.3619    13.440161    13.567181    13.463008    1.9185236     70.58209    22.289081 
   89000    863.86924   -894.86302            0   -880.57005   -3951.9009    13.440161    13.567181    13.463008    2.6487376    72.453356    20.435562 
   90000    853.45924   -893.48622            0   -879.36548   -5797.0252    13.440161    13.567181    13.463008    2.1253025    74.307799     18.57695 
   91000    784.68451   -893.08578            0   -880.10294   -1224.8254    13.440161    13.567181    13.463008    2.5107826    76.181543    16.722778 
   92000    813.78043   -894.37893            0   -880.91469      -204.31    13.440161    13.567181    13.463008    2.2775297    78.047327    14.866158 
   93000    846.82565   -893.27813            0   -879.26715   -1192.2195    13.440161    13.567181    13.463008    2.1910725    79.912844    13.009068 
   94000    780.95791   -892.13932            0   -879.21813   -3254.1316    13.440161    13.567181    13.463008    2.5820854    81.776604    11.151355 
   95000    749.99312   -893.99665            0   -881.58779   -3085.1763    13.440161    13.567181    13.463008    2.0280094    83.633437    9.2926042 
   96000    824.33888   -892.63395            0   -878.99502   -1721.8239    13.440161    13.567181    13.463008    2.3812191    85.492318    7.4341147 
   97000    803.63581   -893.63981            0   -880.34342   -3978.0106    13.440161    13.567181    13.463008    2.0503512    87.349528    5.5755019 
   98000     712.5822   -896.64385            0   -884.85397   -7029.7478    13.440161    13.567181    13.463008    2.1292925    89.204157    3.7168399 
   99000    793.48752   -893.99225            0   -880.86377   -4964.6203    13.440161    13.567181    13.463008    2.3393977    91.061809    1.8584043 
  100000    879.11885   -893.53161            0   -878.98633    -2353.653    13.440161    13.567181    13.463008    1.9980227    92.918652            0 
Loop time of 92.9187 on 1 procs for 50000 steps with 129 atoms

Performance: 46.492 ns/day, 0.516 hours/ns, 538.105 timesteps/s
99.9% CPU use with 1 MPI tasks x no OpenMP threads

MPI task timing breakdown:
Section |  min time  |  avg time  |  max time  |%varavg| %total
---------------------------------------------------------------
Pair    | 62.035     | 62.035     | 62.035     |   0.0 | 66.76
Kspace  | 29.036     | 29.036     | 29.036     |   0.0 | 31.25
Neigh   | 0.72547    | 0.72547    | 0.72547    |   0.0 |  0.78
Comm    | 0.8155     | 0.8155     | 0.8155     |   0.0 |  0.88
Output  | 0.00097704 | 0.00097704 | 0.00097704 |   0.0 |  0.00
Modify  | 0.147      | 0.147      | 0.147      |   0.0 |  0.16
Other   |            | 0.159      |            |       |  0.17

Nlocal:        129.000 ave         129 max         129 min
Histogram: 1 0 0 0 0 0 0 0 0 0
Nghost:        3811.00 ave        3811 max        3811 min
Histogram: 1 0 0 0 0 0 0 0 0 0
Neighs:        38914.0 ave       38914 max       38914 min
Histogram: 1 0 0 0 0 0 0 0 0 0

Total # of neighbors = 38914
Ave neighs/atom = 301.65891
Neighbor list builds = 713
Dangerous builds = 0

# Stage 2: main_nvt_simulation
unfix int
dump     atom_info all custom 1000 main_nvt_simulation-trajectory.lammpstrj element x y z q id type vx vy vz
dump_modify     atom_info append yes
dump_modify     atom_info sort id
dump_modify     atom_info element Na O Cl
restart         0
fix             int all nvt temp 800 800 0.5
run             2000000
PPPM initialization ...
  using 12-bit tables for long-range coulomb (../kspace.cpp:339)
  G vector (1/distance) = 0.27809477
  grid = 15 15 15
  stencil order = 5
  estimated absolute RMS force accuracy = 6.1117994e-05
  estimated relative force accuracy = 4.2444098e-06
  using double precision KISS FFT
  3d grid and FFT values/proc = 10648 3375
Per MPI rank memory allocation (min/avg/max) = 5.670 | 5.670 | 5.670 Mbytes
Step Temp E_pair E_mol TotEng Press Lx Ly Lz Fmax CPU CPULeft 
  100000    879.11885   -893.53161            0   -878.98633    -2353.653    13.440161    13.567181    13.463008    1.9980227            0            0 
  101000    798.81947   -895.09423            0   -881.87752   -4635.2814    13.440161    13.567181    13.463008    2.1635107    1.8972509    3792.6045 
  102000    767.53518    -894.2385            0    -881.5394   -4890.4525    13.440161    13.567181    13.463008    2.1989346    3.7334599    3729.7265 
  103000    803.48006   -893.02224            0   -879.72842   -3307.1354    13.440161    13.567181    13.463008    2.4194494    5.5730619    3709.8022 
  104000    715.71222   -890.92021            0   -879.07853   -2742.7894    13.440161    13.567181    13.463008    3.1287406    7.4137409    3699.4573 
  105000    700.86067   -893.67468            0   -882.07873    -4568.154    13.440161    13.567181    13.463008    2.4011224    9.2517841    3691.4619 
  106000    934.72548   -894.64204            0   -879.17672   -2387.3465    13.440161    13.567181    13.463008    1.7973027    11.089982    3685.5707 
  107000    792.52772   -892.78098            0   -879.66838   -2954.3105    13.440161    13.567181    13.463008    2.4241793     12.93282    3682.1586 
  108000    760.29542   -893.50437            0   -880.92505   -3342.4754    13.440161    13.567181    13.463008    2.6667115    14.778908    3679.9481 
  109000    783.77226   -894.22145            0    -881.2537   -5219.6833    13.440161    13.567181    13.463008    2.4112196    16.664809    3686.6263 
  110000    805.97888   -892.31816            0     -878.983    -1474.195    13.440161    13.567181    13.463008    2.3059826    18.529091    3687.2901 
  111000    753.51487   -893.06857            0   -880.60144   -3164.6317    13.440161    13.567181    13.463008    1.9741557    20.368279    3682.9553 
  112000    710.12602     -893.338            0   -881.58875   -6205.9978    13.440161    13.567181    13.463008    2.6713168    22.224111    3681.7946 
  113000    748.21395   -892.19894            0   -879.81952   -4895.1341    13.440161    13.567181    13.463008    2.6610124    24.057598    3677.1115 
  114000    792.89221   -893.24205            0   -880.12341   -6000.3117    13.440161    13.567181    13.463008    2.4690454    25.942285    3680.0986 
  115000    795.20965   -895.48775            0   -882.33077   -4513.2128    13.440161    13.567181    13.463008    1.9109411    27.788499    3677.3448 
  116000    792.49185   -894.60663            0   -881.49461   -2448.8465    13.440161    13.567181    13.463008    2.1394442     29.62517    3673.5212 
  117000    823.97711   -893.31852            0   -879.68557   -4110.9744    13.440161    13.567181    13.463008    2.3806097    31.460437    3669.7676 
  118000    698.10991   -893.31137            0   -881.76093   -4295.7073    13.440161    13.567181    13.463008    2.0635879    33.345481    3671.7081 
  119000    752.86409   -893.97157            0   -881.51521    -3115.286    13.440161    13.567181    13.463008    2.0481632     35.17873    3667.8456 
  120000    835.01487   -893.64538            0   -879.82981   -4015.8257    13.440161    13.567181    13.463008    2.1126483    37.012143    3664.2022 
  121000    758.19806   -894.16597            0   -881.62136    -4938.065    13.440161    13.567181    13.463008    1.8488527    38.844746     3660.655 
  122000    741.84146   -894.20823            0   -881.93424   -3952.1448    13.440161    13.567181    13.463008    1.8228066    40.745347    3663.3772 
  123000    749.62215   -891.33554            0   -878.93282   -3315.0304    13.440161    13.567181    13.463008    2.3205091    42.579689     3660.002 
  124000    703.99216   -893.17366            0    -881.5259   -8272.3925    13.440161    13.567181    13.463008    2.4565755    44.434815    3658.4665 
  125000    843.18203   -894.61685            0   -880.66615   -1913.3358    13.440161    13.567181    13.463008     2.325565    46.271295    3655.4324 
  126000    851.30323   -893.36526            0   -879.28019   -3170.6723    13.440161    13.567181    13.463008    3.0483095    48.108741    3652.5637 
  127000    710.98279   -893.26788            0   -881.50446    -7237.328    13.440161    13.567181    13.463008    1.9948827    49.950976    3650.1214 
  128000    873.56353   -893.13054            0   -878.67717   -1190.1711    13.440161    13.567181    13.463008    2.5375714     51.80779    3648.7487 
  129000    825.37016   -893.18081            0   -879.52482     -5362.01    13.440161    13.567181    13.463008    1.8119888    53.648289    3646.2337 
  130000    796.05466   -893.68063            0   -880.50966   -5283.6698    13.440161    13.567181    13.463008    2.2971569    55.521338    3645.9013 
  131000    866.27923   -894.55418            0   -880.22133   -3136.2159    13.440161    13.567181    13.463008    2.2065397    57.357184    3643.1063 
  132000    900.15335   -893.78845            0   -878.89514   -4875.9642    13.440161    13.567181    13.463008    1.8827827    59.194222    3640.4447 
  133000    657.94298   -892.33318            0   -881.44732    -7150.119    13.440161    13.567181    13.463008    2.5342472    61.032616    3637.9138 
  134000    799.40929   -893.50142            0   -880.27496   -1964.6147    13.440161    13.567181    13.463008    2.2832062    62.915041    3637.9698 
  135000    839.40756   -892.80094            0   -878.91269   -1986.1913    13.440161    13.567181    13.463008    3.1023111      64.7505    3635.2781 
  136000    781.02773   -894.12377            0   -881.20143   -6345.1593    13.440161    13.567181    13.463008    2.2335839    66.583774    3632.5148 
  137000    862.83744    -892.2589            0     -877.983   -1362.1082    13.440161    13.567181    13.463008    2.2999622    68.417194    3629.8095 
  138000    823.81299   -893.00746            0   -879.37723   -7508.5516    13.440161    13.567181    13.463008    2.8998368    70.251751    3627.2089 
  139000    759.66929   -893.42181            0   -880.85285   -6854.6927    13.440161    13.567181    13.463008    1.7587262    72.089774    3624.8217 
  140000    840.06965   -892.17416            0   -878.27496    399.83283    13.440161    13.567181    13.463008    2.7992246    73.924956    3622.3229 
  141000    823.48065   -892.95662            0   -879.33188   -4744.4923    13.440161    13.567181    13.463008    2.5763572    75.762744    3619.9809 
  142000    762.95119   -893.39942            0   -880.77617   -5605.0502    13.440161    13.567181    13.463008    1.8952939    77.600171    3617.6461 
  143000    824.44968   -893.64779            0   -880.00702   -1572.3468    13.440161    13.567181    13.463008    3.3371464    79.474706    3617.0233 
  144000    888.38541   -892.64834            0   -877.94974    -3932.346    13.440161    13.567181    13.463008    2.1616032    81.309214    3614.5642 
  145000    791.47347   -894.05244            0   -880.95728   -1266.4284    13.440161    13.567181    13.463008     1.959479     83.14806    3612.3213 
  146000    796.43448   -892.84694            0   -879.66969    -3703.571    13.440161    13.567181    13.463008    2.7478213    84.986502    3610.0788 
  147000    868.85455   -891.74714            0   -877.37168   -3580.3019    13.440161    13.567181    13.463008     2.055578    86.928164    3612.1427 
  148000    799.62894   -893.86987            0   -880.63977   -4112.8021    13.440161    13.567181    13.463008    1.8592619    88.764735    3609.7659 
  149000    856.77166   -894.63526            0   -880.45972   -4233.0212    13.440161    13.567181    13.463008    1.9401752    90.603832    3607.5118 
  150000    855.36875   -891.71967            0   -877.56734   -3924.7464    13.440161    13.567181    13.463008    2.0322503    92.444383     3605.331 
  151000    799.92965   -894.40671            0   -881.17164    -8179.427    13.440161    13.567181    13.463008    2.5274087    94.358561    3605.9772 
  152000    927.88439   -895.19492            0   -879.84279   -5867.6605    13.440161    13.567181    13.463008    2.0753154    96.198682    3603.7507 
  153000    815.35269    -893.4719            0   -879.98165   -5491.8552    13.440161    13.567181    13.463008    1.7740025    98.051151    3601.9923 
  154000    757.06658   -894.82096            0   -882.29506   -3607.5605    13.440161    13.567181    13.463008    2.2060035     99.88448    3599.5407 
  155000    856.74306   -893.74499            0   -879.56992   -3350.5972    13.440161    13.567181    13.463008    2.0861205    101.71966    3597.1771 
  156000    815.50612   -894.07514            0   -880.58235   -3114.9952    13.440161    13.567181    13.463008    2.1305029    103.55663    3594.8944 
  157000    778.86896   -895.74198            0   -882.85536   -6691.2709    13.440161    13.567181    13.463008    2.7810377    105.47304    3595.3354 
  158000    790.58082   -893.81714            0   -880.73675   -4455.0937    13.440161    13.567181    13.463008    3.4288498    107.30966    3593.0235 
  159000    782.28864   -892.70756            0   -879.76437   -6165.8812    13.440161    13.567181    13.463008    2.4245739    109.17506    3591.6743 
  160000     801.2686   -896.01175            0   -882.75452   -6244.0764    13.440161    13.567181    13.463008    1.9524043    111.01296    3589.4192 
  161000    854.62458   -893.70683            0   -879.56681   -2310.2755    13.440161    13.567181    13.463008    2.6556837    112.85214     3587.218 
  162000    745.58635   -892.62986            0   -880.29391   -2099.0288    13.440161    13.567181    13.463008    2.3736915    114.70984    3585.6075 
  163000    792.71785   -895.16067            0   -882.04492   -5165.0711    13.440161    13.567181    13.463008    2.4859534    116.54465    3583.2854 
  164000    854.72758   -892.55841            0   -878.41668   -2317.7368    13.440161    13.567181    13.463008    2.5589596    118.43152    3582.5535 
  165000    883.61036   -895.43407            0   -880.81447   -4508.7196    13.440161    13.567181    13.463008    2.3725898     120.3238    3581.9471 
  166000    788.66865   -894.03288            0   -880.98412   -4198.8285    13.440161    13.567181    13.463008    2.0297584    122.15558    3579.5287 
  167000    811.18949   -894.08494            0   -880.66357   -2772.2503    13.440161    13.567181    13.463008    1.9220854    123.98795    3577.1449 
  168000    827.53592   -893.91728            0   -880.22546   -3248.3367    13.440161    13.567181    13.463008    1.8174274    125.88189    3576.5265 
  169000    859.37701   -892.39128            0   -878.17263    5464.4313    13.440161    13.567181    13.463008    2.9796446    127.72083    3574.3323 
  170000    775.73222   -894.24487            0   -881.41015   -4286.0159    13.440161    13.567181    13.463008    2.3339535    129.55283    3571.9565 
  171000    743.75468   -892.54495            0   -880.23931   -3877.8538    13.440161    13.567181    13.463008     2.530065    131.38358    3569.5623 
  172000    902.98119   -891.77829            0   -876.83819     303.6327    13.440161    13.567181    13.463008    2.2510235    133.33897    3570.5214 
  173000    768.86748   -894.26352            0   -881.54238   -4780.5965    13.440161    13.567181    13.463008    2.3471326    135.18879    3568.6136 
  174000    827.67082   -894.16137            0   -880.46731   -5795.0905    13.440161    13.567181    13.463008    1.9606781    137.02383     3566.323 
  175000    827.82931    -892.8255            0   -879.12882   -1749.2078    13.440161    13.567181    13.463008    2.7789051    138.85828    3564.0291 
  176000     747.4805   -894.70061            0   -882.33333   -6726.2819    13.440161    13.567181    13.463008    1.9997719    140.73045    3562.7026 
  177000    707.71526   -891.78402            0   -880.07466    -2424.179    13.440161    13.567181    13.463008    2.2683892    142.56218    3560.3517 
  178000    796.28389   -893.41378            0   -880.23902   -4995.0979    13.440161    13.567181    13.463008    2.1114314    144.47947    3560.1224 
  179000    734.79296   -892.72043            0   -880.56306   -1929.2671    13.440161    13.567181    13.463008    2.2426336    146.31158    3557.7791 
  180000    805.41485   -893.55881            0   -880.23298   -6336.4497    13.440161    13.567181    13.463008    2.2094781    148.14567     3555.496 
  181000    923.84635   -894.13087            0   -878.84556   -452.18577    13.440161    13.567181    13.463008    2.7370386    149.98683    3553.3916 
  182000    687.00102   -893.20581            0   -881.83918   -5182.1699    13.440161    13.567181    13.463008    1.8558028    151.89381    3552.8334 
  183000    852.47478   -894.03909            0   -879.93464   -2968.9366    13.440161    13.567181    13.463008     2.163355    153.72568    3550.5075 
  184000    865.13897   -893.21167            0   -878.89769   -610.01896    13.440161    13.567181    13.463008    2.3002911    155.56127    3548.2786 
  185000    737.87202   -893.68596            0   -881.47764    -7222.271    13.440161    13.567181    13.463008    2.0442305    157.44636    3547.1738 
  186000    762.60798   -891.95712            0   -879.33954   -451.69363    13.440161    13.567181    13.463008     2.367517    159.29046     3545.139 
  187000    887.25835    -893.9213            0   -879.24135    -3675.679    13.440161    13.567181    13.463008    2.1640008    161.12633    3542.9273 
  188000    848.31839    -894.8931            0   -880.85742   -6204.8247    13.440161    13.567181    13.463008    1.7785027    162.96335    3540.7493 
  189000    793.90617   -892.60294            0   -879.46752    -3672.164    13.440161    13.567181    13.463008    2.9090142    164.82652    3539.1403 
  190000    917.17451   -893.34121            0   -878.16629   -2614.7092    13.440161    13.567181    13.463008    2.1497922     166.6598    3536.8913 
  191000     880.7212   -895.08315            0   -880.51135   -4860.4378    13.440161    13.567181    13.463008    2.1333804    168.59366    3536.7615 
  192000    829.93854   -894.39123            0   -880.65965   -4425.4871    13.440161    13.567181    13.463008    2.1349105    170.43031    3534.5764 
  193000    920.40355   -894.54033            0   -879.31198    -3503.054    13.440161    13.567181    13.463008    2.5866428     172.2688    3532.4366 
  194000     716.1808   -893.31403            0   -881.46461   -3073.0567    13.440161    13.567181    13.463008    3.6742491    174.10753     3530.308 
  195000    783.05597   -894.29637            0   -881.34048   -5926.6168    13.440161    13.567181    13.463008    2.2572454    175.94813     3528.223 
  196000    788.93006   -892.58391            0   -879.53083   -2890.0764    13.440161    13.567181    13.463008    2.4118118    177.78707    3526.1101 
  197000    757.68553   -893.84825            0   -881.31212   -3813.8097    13.440161    13.567181    13.463008    2.0517365    179.66002    3524.6703 
  198000    725.12394    -893.6472            0   -881.64981   -4621.9855    13.440161    13.567181    13.463008    2.2540971    181.49483    3522.4813 
  199000    782.41362   -891.79288            0   -878.84761   -3480.6693    13.440161    13.567181    13.463008       2.4251    183.33519    3520.4061 
  200000    759.30058    -894.3117            0   -881.74885   -5110.0776    13.440161    13.567181    13.463008    2.9656775    185.17473    3518.3199 
  201000    804.76872   -894.50131            0   -881.18617   -3444.1013    13.440161    13.567181    13.463008    2.0408345    187.02707    3516.4792 
  202000    795.78769   -893.33117            0   -880.16462    -3877.281    13.440161    13.567181    13.463008    2.0940787    188.86518    3514.3736 
  203000    831.78543    -893.0454            0   -879.28326   -4368.9704    13.440161    13.567181    13.463008    2.8982444    190.70498    3512.3043 
  204000    719.85777   -894.13868            0   -882.22842   -4902.5109    13.440161    13.567181    13.463008     2.519543    192.54908    3510.3179 
  205000    806.46037   -892.67664            0   -879.33351   -4498.8561    13.440161    13.567181    13.463008    1.9230853    194.38773    3508.2358 
  206000    827.92775   -893.51535            0   -879.81704   -4605.1246    13.440161    13.567181    13.463008    2.2226459    196.23291    3506.2749 
  207000    712.35881   -893.50753            0   -881.72134   -1675.7024    13.440161    13.567181    13.463008    2.3115112    198.11174    3504.9114 
  208000    823.48759   -892.56565            0    -878.9408   -1872.8957    13.440161    13.567181    13.463008    2.1630038    199.94676     3502.771 
  209000    768.56645    -893.0174            0   -880.30124   -1687.5487    13.440161    13.567181    13.463008    2.5221606    201.78482     3500.689 
  210000    798.93346     -894.639            0   -881.42041   -3830.4152    13.440161    13.567181    13.463008     2.482277    203.65826    3499.2192 
  211000    806.17099   -892.84609            0   -879.50775   -2948.3534    13.440161    13.567181    13.463008    2.4187798     205.4929    3497.0819 
  212000    1008.1122   -893.01771            0   -876.33819   -4459.2669    13.440161    13.567181    13.463008    2.0926546    207.37473    3495.7455 
  213000    721.56857   -892.48984            0   -880.55127    -4933.481    13.440161    13.567181    13.463008    2.2179648    209.21887    3493.7701 
  214000    754.24881   -894.12209            0   -881.64282   -5083.5471    13.440161    13.567181    13.463008     2.633692    211.05757    3491.7069 
  215000    799.61441   -891.57284            0   -878.34298   -1041.9846    13.440161    13.567181    13.463008    2.5688077    212.89587    3489.6411 
  216000    786.12749   -893.46535            0   -880.45864   -2921.0839    13.440161    13.567181    13.463008    2.4465505    214.73463    3487.5865 
  217000     811.5961   -894.15839            0   -880.73029    -3274.584    13.440161    13.567181    13.463008    2.3531699    216.57069    3485.4924 
  218000    807.37342   -892.06176            0   -878.70353   -3816.1261    13.440161    13.567181    13.463008    2.8903496    218.40983    3483.4518 
  219000    783.12096   -892.52244            0   -879.56547   -1772.9283    13.440161    13.567181    13.463008    2.4512277    220.24708    3481.3845 
  220000    813.44291   -894.74582            0   -881.28717   -5304.2986    13.440161    13.567181    13.463008    2.3404854    222.07874    3479.2337 
  221000    890.67341   -893.21625            0   -878.47979   -5356.7368    13.440161    13.567181    13.463008    2.6394328    223.91221     3477.116 
  222000    778.10249   -893.65173            0   -880.77779   -3749.6889    13.440161    13.567181    13.463008    1.9031278    225.86582    3476.8526 
  223000    784.53247   -894.05443            0    -881.0741   -1669.4147    13.440161    13.567181    13.463008    2.4129594     227.7038     3474.797 
  224000    822.51769   -892.38023            0   -878.77143   -3727.7945    13.440161    13.567181    13.463008    2.1709971    229.53754    3472.6809 
  225000    755.81273   -894.73749            0   -882.23234   -4364.7448    13.440161    13.567181    13.463008    1.7114648    231.36909    3470.5364 
  226000    825.37433    -894.1999            0   -880.54384   -4414.5774    13.440161    13.567181    13.463008    1.9601764    233.23083    3468.8459 
  227000    848.98389   -893.66766            0   -879.62097   -5265.4547    13.440161    13.567181    13.463008    3.3328164    235.06569    3466.7562 
  228000    835.88487   -894.19972            0   -880.36976   -5494.3856    13.440161    13.567181    13.463008    2.6270663    236.91759    3464.9197 
  229000    769.34064   -893.92346            0   -881.19449   -5039.1205    13.440161    13.567181    13.463008    2.9296767    238.77241    3463.1255 
  230000    751.43011   -894.50331            0   -882.07067    -2898.215    13.440161    13.567181    13.463008    3.3791964    240.67383    3462.0006 
  231000    864.86187    -893.4859            0   -879.17651   -4427.1106    13.440161    13.567181    13.463008    2.4052324    242.53591    3460.3025 
  232000    749.97834   -893.65339            0   -881.24478   -6633.9934    13.440161    13.567181    13.463008    1.7366981     244.3721    3458.2354 
  233000     667.1649   -896.03253            0   -884.99409   -7511.5152    13.440161    13.567181    13.463008    1.9961789    246.20244    3456.0898 
  234000    739.18778   -894.31662            0   -882.08653   -4478.9577    13.440161    13.567181    13.463008    2.8642879    248.03782    3454.0192 
  235000    845.45095    -893.3799            0   -879.39166   -4031.0251    13.440161    13.567181    13.463008    2.9004787    249.90327    3452.3674 
  236000     774.6552    -894.0065            0    -881.1896   -6108.0569    13.440161    13.567181    13.463008    2.9357506    251.74254    3450.3536 
  237000    754.98111    -894.4103            0   -881.91892   -3688.4256    13.440161    13.567181    13.463008    2.1640109    253.64696    3449.2284 
  238000    800.90367   -893.53994            0   -880.28875   -3952.4105    13.440161    13.567181    13.463008    1.9559526    255.48406    3447.1835 
  239000    737.71889   -893.09828            0    -880.8925   -1202.9522    13.440161    13.567181    13.463008    1.9461368    257.31917    3445.1149 
  240000    670.60343   -894.33395            0   -883.23862   -8873.8026    13.440161    13.567181    13.463008    2.2601059    259.15099     3443.006 
  241000    932.31845   -895.40991            0   -879.98443   -4113.2085    13.440161    13.567181    13.463008    2.6553194    261.04585    3441.7321 
  242000    838.03678   -894.47841            0   -880.61284   -5325.5084    13.440161    13.567181    13.463008     1.785159    262.88484    3439.7185 
  243000    768.09711   -896.01381            0   -883.30541   -7741.5857    13.440161    13.567181    13.463008     1.927392    264.78124    3438.4529 
  244000    845.27346   -893.51236            0   -879.52706    -4539.675    13.440161    13.567181    13.463008    2.2316679    266.62063    3436.4436 
  245000    773.94954   -893.70608            0   -880.90085   -2917.0123    13.440161    13.567181    13.463008    2.4557582    268.45983    3434.4344 
  246000    740.55372   -894.41832            0   -882.16564   -3951.5885    13.440161    13.567181    13.463008    2.1247355    270.29729    3432.4053 
  247000    829.39355   -892.39654            0   -878.67397   -4958.0751    13.440161    13.567181    13.463008    3.1298427    272.22621    3431.5318 
  248000    813.02979    -894.6658            0   -881.21398   -6914.4556    13.440161    13.567181    13.463008    2.6480427    274.06383    3429.5015 
  249000    727.97963    -892.4475            0   -880.40286   -853.76884    13.440161    13.567181    13.463008    2.4495783    275.93793     3427.927 
  250000    891.28254   -893.46865            0   -878.72212   -2771.5867    13.440161    13.567181    13.463008    2.5015282    277.77375    3425.8762 
  251000    752.03909   -893.83685            0   -881.39414   -7509.1834    13.440161    13.567181    13.463008    2.3939942    279.61008    3423.8347 
  252000    833.82448   -892.83749            0   -879.04162    -3091.618    13.440161    13.567181    13.463008    2.4487668    281.44584    3421.7889 
  253000    794.61459   -892.27832            0   -879.13118   -3174.6415    13.440161    13.567181    13.463008    2.1062476    283.29991    3419.9669 
  254000    820.86374     -894.237            0   -880.65557   -7488.7423    13.440161    13.567181    13.463008    2.5803811    285.14505    3418.0375 
  255000    702.09024   -892.17188            0   -880.55559   -3681.0424    13.440161    13.567181    13.463008    2.6313567    287.02876    3416.5682 
  256000    817.39316      -892.03            0   -878.50599   -2469.1283    13.440161    13.567181    13.463008    3.4390459    288.85974    3414.4703 
  257000    743.97743   -893.96046            0   -881.65113   -6116.5708    13.440161    13.567181    13.463008    2.2143825    290.69912    3412.4743 
  258000    788.40903   -893.81741            0   -880.77295   -4647.3617    13.440161    13.567181    13.463008    1.9393778    292.58482    3411.0206 
  259000    768.92788   -892.64575            0    -879.9236   -3463.8201    13.440161    13.567181    13.463008    2.2686326    294.41776    3408.9503 
  260000      781.907   -893.31969            0   -880.38281   -5004.1023    13.440161    13.567181    13.463008    2.7815369    296.32329    3407.7178 
  261000    730.89846   -893.55385            0   -881.46092   -3998.2134    13.440161    13.567181    13.463008     2.009306    298.20276    3406.1794 
  262000    779.00656    -892.6528            0    -879.7639   -1513.9345    13.440161    13.567181    13.463008    2.6508069    300.03546     3404.106 
  263000    814.94742   -893.09361            0   -879.61006    423.48773    13.440161    13.567181    13.463008     2.773743    301.86746    3402.0278 
  264000    817.09774   -895.39608            0   -881.87696   -7223.9795    13.440161    13.567181    13.463008    2.0536771    303.79388    3401.0096 
  265000    776.17422   -892.67916            0   -879.83712   -4293.0031    13.440161    13.567181    13.463008    2.5329474    305.63101    3398.9873 
  266000    853.45578   -894.60549            0   -880.48481   -5070.9209    13.440161    13.567181    13.463008     2.673986    307.46638    3396.9478 
  267000    751.17415   -894.59555            0   -882.16714   -6646.7312    13.440161    13.567181    13.463008    1.8744804    309.30045    3394.8965 
  268000    849.71811   -893.25695            0   -879.19811   -3030.0929    13.440161    13.567181    13.463008    2.0487031    311.23027     3393.892 
  269000    773.49966   -893.19915            0   -880.40137   -4882.9746    13.440161    13.567181    13.463008    2.3703652    313.06347    3391.8297 
  270000    674.95802   -894.59774            0   -883.43036   -6169.9166    13.440161    13.567181    13.463008    2.0800153    314.90779    3389.8898 
  271000    784.97804   -893.91418            0   -880.92648   -3038.8073    13.440161    13.567181    13.463008    2.7306316    316.74603    3387.8859 
  272000    855.27123   -893.23171            0   -879.08099   -2922.2201    13.440161    13.567181    13.463008    2.1424011    318.58495    3385.8912 
  273000    786.09141   -894.56071            0    -881.5546   -1566.4304    13.440161    13.567181    13.463008    2.8459022    320.44957    3384.1698 
  274000    753.82131   -893.31139            0   -880.83919   -5083.6428    13.440161    13.567181    13.463008    2.0855611    322.30459    3382.3459 
  275000    789.02698   -892.44154            0   -879.38685   -3841.7439    13.440161    13.567181    13.463008    1.8276522     324.1489    3380.4099 
  276000    832.42746   -894.81054            0   -881.03778   -5661.1465    13.440161    13.567181    13.463008    2.2826149    325.99086    3378.4508 
  277000    686.83873    -895.0453            0   -883.68135    -5994.669    13.440161    13.567181    13.463008    2.2642229    327.84073    3376.5743 
  278000     771.4991   -893.01338            0    -880.2487   -4208.6734    13.440161    13.567181    13.463008    2.0576466    329.67398    3374.5281 
  279000     925.2267   -894.75343            0   -879.44528   -4313.1919    13.440161    13.567181    13.463008    2.5102194    331.53529    3372.7696 
  280000    794.06915   -895.42135            0   -882.28324   -4916.2302    13.440161    13.567181    13.463008    2.5792896    333.36871    3370.7281 
  281000    789.06679   -893.42981            0   -880.37446   -3335.6224    13.440161    13.567181    13.463008    1.8881464    335.21598     3368.828 
  282000    845.73876   -893.82778            0   -879.83478   -1726.0459    13.440161    13.567181    13.463008    2.4163528    337.04953    3366.7914 
  283000    791.48189   -894.80029            0   -881.70498   -5602.5358    13.440161    13.567181    13.463008    2.6791037    338.89638    3364.8893 
  284000    761.66387   -892.68534            0   -880.08339   -5237.7223    13.440161    13.567181    13.463008      1.94443      340.729    3362.8471 
  285000    793.41892   -892.25803            0   -879.13068   -3637.1778    13.440161    13.567181    13.463008    2.8109874    342.57527    3360.9412 
  286000    764.03161   -894.64409            0   -882.00296   -5259.1792    13.440161    13.567181    13.463008    3.4188631    344.40852    3358.9089 
  287000    804.55797   -893.82098            0   -880.50933   -6232.0321    13.440161    13.567181    13.463008    2.1044189    346.24417     3356.902 
  288000    871.42372   -893.40782            0   -878.98985   -4185.2081    13.440161    13.567181    13.463008    1.9855527    348.08489    3354.9459 
  289000    850.94781   -894.13103            0   -880.05184    -4009.885    13.440161    13.567181    13.463008    2.0886628    349.93883    3353.1176 
  290000    730.24904   -894.00903            0   -881.92684   -7381.3248    13.440161    13.567181    13.463008    1.6734539    351.76984    3351.0706 
  291000    894.47815   -893.49598            0   -878.69657   -950.84611    13.440161    13.567181    13.463008    2.2916822    353.62533    3349.2577 
  292000    742.19526   -892.09918            0   -879.81933   -2631.1823    13.440161    13.567181    13.463008    2.0494213    355.46017      3347.25 
  293000    851.74043   -894.89474            0   -880.80244   -5242.7348    13.440161    13.567181    13.463008     2.051896    357.31702      3345.45 
  294000    771.40384   -894.48344            0   -881.72033   -3917.1617    13.440161    13.567181    13.463008    2.0837472    359.15146    3343.4409 
  295000     783.3339    -893.0346            0   -880.07411   -3426.6081    13.440161    13.567181    13.463008    1.8491959    360.99766    3341.5425 
  296000    845.37362   -893.39994            0   -879.41299   -5753.7673    13.440161    13.567181    13.463008    2.0024673    362.83878    3339.5977 
  297000    766.56984    -894.9875            0   -882.30437   -3460.7108    13.440161    13.567181    13.463008    1.8479162    364.67248    3337.5862 
  298000    914.86586   -894.93136            0   -879.79463   -4304.3448    13.440161    13.567181    13.463008    2.1678249    366.50433    3335.5596 
  299000    779.43444   -893.18024            0   -880.28427   -7486.9145    13.440161    13.567181    13.463008    1.9941144    368.35629     3333.717 
  300000     844.9968    -894.9846            0   -881.00388   -3881.3151    13.440161    13.567181    13.463008    2.2672582    370.18945     3331.705 
  301000    927.59484   -893.69958            0   -878.35225   -1695.1706    13.440161    13.567181    13.463008    2.6153456    372.03907    3329.8422 
  302000    840.33846   -893.90915            0    -880.0055   -3128.0068    13.440161    13.567181    13.463008    1.6619617    373.87123    3327.8241 
  303000    790.32924    -894.3521            0   -881.27587   -4876.8667    13.440161    13.567181    13.463008    2.0542932    375.70994    3325.8658 
  304000     956.6637   -893.67185            0   -877.84356   -1601.2025    13.440161    13.567181    13.463008    2.5992937      377.544    3323.8678 
  305000    835.78722   -892.90831            0   -879.07996   -2516.4605    13.440161    13.567181    13.463008    2.3020287    379.37952    3321.8841 
  306000    838.66998   -894.73228            0   -880.85624   -5620.6156    13.440161    13.567181    13.463008    2.4612846    381.21098    3319.8665 
  307000    755.17809    -894.3198            0   -881.82515   -6013.9529    13.440161    13.567181    13.463008    2.8246103     383.0446    3317.8694 
  308000    755.10317   -892.08673            0   -879.59332   -2199.1074    13.440161    13.567181    13.463008    3.4639696    384.87834    3315.8749 
  309000    785.39049    -892.9613            0   -879.96678   -673.21809    13.440161    13.567181    13.463008    2.5182558    386.71052    3313.8686 
  310000    741.67065   -894.21581            0   -881.94465   -6900.1254    13.440161    13.567181    13.463008    1.9041289    388.56016    3312.0128 
  311000    821.89138   -893.54076            0   -879.94232   -4865.4638    13.440161    13.567181    13.463008    2.4513498    390.39657    3310.0449 
  312000    785.23931   -893.50961            0    -880.5176   -3788.8021    13.440161    13.567181    13.463008    2.3338172    392.24517     3308.181 
  313000     721.9243     -895.289            0   -883.34455   -6699.8909    13.440161    13.567181    13.463008    2.1780218    394.07783    3306.1835 
  314000    771.22436   -892.72921            0   -879.96908   -880.04259    13.440161    13.567181    13.463008    2.8962148    395.92882    3304.3405 
  315000    841.73094   -894.04705            0   -880.12036   -4606.7384    13.440161    13.567181    13.463008    2.1171708    397.76838    3302.4026 
  316000    697.09252   -894.24543            0   -882.71182     -3282.12    13.440161    13.567181    13.463008    1.8774491    399.61573    3300.5299 
  317000    778.20358    -892.8105            0   -879.93489   -2810.6265    13.440161    13.567181    13.463008    2.2703205    401.44696     3298.525 
  318000    674.41562   -891.59688            0   -880.43847   -3239.5305    13.440161    13.567181    13.463008    2.9200607    403.29438    3296.6541 
  319000    735.26103   -894.42586            0   -882.26074   -4875.2729    13.440161    13.567181    13.463008    2.2137839    405.13248    3294.7076 
  320000    788.67662    -892.9877            0   -879.93881    249.93175    13.440161    13.567181    13.463008    2.5001621    406.97935    3292.8329 
  321000    820.64781   -893.29332            0   -879.71545   -4186.5944    13.440161    13.567181    13.463008    2.0291378    408.81714    3290.8855 
  322000    715.95127   -894.56744            0   -882.72182   -5659.5815    13.440161    13.567181    13.463008    2.9106741    410.66974    3289.0576 
  323000    887.92881   -893.43928            0   -878.74823   -3769.8389    13.440161    13.567181    13.463008    2.1298662     412.4997    3287.0491 
  324000    746.42354   -893.05006            0   -880.70026   -3077.2481    13.440161    13.567181    13.463008    2.1351702    414.35653    3285.2553 
  325000    714.06376   -893.33641            0   -881.52202   -7163.4051    13.440161    13.567181    13.463008    2.2447181    416.18799    3283.2608 
  326000    881.23747   -892.66695            0   -878.08661   -3216.4982    13.440161    13.567181    13.463008    2.3747229    418.03829    3281.4156 
  327000    823.21486   -894.21055            0   -880.59021   -7593.0947    13.440161    13.567181    13.463008    2.2210382    419.87499    3279.4641 
  328000    827.54012   -894.40263            0   -880.71073   -7381.1671    13.440161    13.567181    13.463008    1.8972473    421.72705     3277.633 
  329000    949.58806   -892.28232            0   -876.57111   -1163.3941    13.440161    13.567181    13.463008    2.7247556    423.56178    3275.6678 
  330000    844.71997   -894.00189            0   -880.02574   -6268.2865    13.440161    13.567181    13.463008    2.2661779    425.40998    3273.8072 
  331000    752.86123    -893.7024            0   -881.24609   -4008.0965    13.440161    13.567181    13.463008    2.7091949    427.24921    3271.8782 
  332000     877.9082   -893.09117            0   -878.56592    -2921.573    13.440161    13.567181    13.463008    2.4147079    429.08521    3269.9252 
  333000    784.24477   -892.91097            0   -879.93541   -3018.5257    13.440161    13.567181    13.463008      3.32912    430.92024    3267.9659 
  334000    716.93614   -892.85169            0   -880.98977   -7196.2712    13.440161    13.567181    13.463008    2.0797344    432.76697     3266.096 
  335000    756.52447   -891.52698            0   -879.01006   -931.91539    13.440161    13.567181    13.463008    4.1073485    434.60081    3264.1295 
  336000    932.70383   -892.98612            0   -877.55426   -2000.0548    13.440161    13.567181    13.463008    2.2532092    436.44598    3262.2488 
  337000    833.61756   -895.10355            0    -881.3111   -5197.7451    13.440161    13.567181    13.463008    2.6081245     438.2835    3260.3114 
  338000    721.31885   -891.80251            0   -879.86807   -5321.4678    13.440161    13.567181    13.463008    2.3997174    440.19135    3258.8956 
  339000     846.3631   -892.64241            0   -878.63908   -1859.5912    13.440161    13.567181    13.463008    2.2703502    442.03388    3256.9944 
  340000    815.00713   -894.98454            0       -881.5   -5625.3347    13.440161    13.567181    13.463008    1.8741058    443.87233    3255.0638 
  341000    766.58381   -891.91888            0   -879.23552    -3925.217    13.440161    13.567181    13.463008    1.7718343    445.74208    3253.3624 
  342000    758.28091   -893.59888            0   -881.05289   -3726.5666    13.440161    13.567181    13.463008    2.3882134    447.58857    3251.4905 
  343000    708.47852   -893.19813            0   -881.47615   -6124.5127    13.440161    13.567181    13.463008    2.4743329    449.42351    3249.5354 
  344000    746.34764   -891.95856            0   -879.61001    106.04421    13.440161    13.567181    13.463008    2.4244823    451.25928    3247.5873 
  345000    725.84553   -892.67779            0   -880.66846   -3917.4127    13.440161    13.567181    13.463008     2.412384    453.15739    3246.0866 
  346000    758.62113   -893.46314            0   -880.91152   -3424.5176    13.440161    13.567181    13.463008    2.3790023     455.0223     3244.346 
  347000    810.97054   -892.17241            0   -878.75466    262.75914    13.440161    13.567181    13.463008    2.4254034    456.92635    3242.8822 
  348000    766.40127   -893.81488            0   -881.13455   -3431.7469    13.440161    13.567181    13.463008    2.0092681     458.7632      3240.94 
  349000    755.38999   -893.53416            0     -881.036   -4102.1217    13.440161    13.567181    13.463008    2.7312429    460.59707    3238.9778 
  350000    777.90556   -892.86218            0    -879.9915   -2317.5418    13.440161    13.567181    13.463008    3.0489308    462.43116    3237.0181 
  351000    778.24224   -893.22299            0   -880.34674   -4325.1738    13.440161    13.567181    13.463008    1.9142318    464.31204    3235.3855 
  352000    771.12189   -894.59019            0   -881.83174   -5790.8472    13.440161    13.567181    13.463008    2.4899658    466.19657    3233.7762 
  353000    877.95312   -893.76123            0   -879.23523    -4589.875    13.440161    13.567181    13.463008    2.2678058    468.12061    3232.4376 
  354000    820.93388   -893.22242            0   -879.63982   -4699.9229    13.440161    13.567181    13.463008     2.201593       469.96    3230.5124 
  355000    728.46299   -894.39107            0   -882.33843   -7554.3843    13.440161    13.567181    13.463008     2.403954    471.79237    3228.5399 
  356000      740.316   -895.39104            0    -883.1423   -6176.0204    13.440161    13.567181    13.463008    1.9271554    473.62373    3226.5617 
  357000     825.1039   -893.46576            0   -879.81417   -3960.7604    13.440161    13.567181    13.463008    2.4380915    475.48355    3224.7775 
  358000    864.05993   -893.44131            0   -879.14518   -6861.8756    13.440161    13.567181    13.463008      1.95354    477.32385    3222.8611 
  359000     756.0183   -894.75505            0    -882.2465   -8394.0332    13.440161    13.567181    13.463008    2.9151521    479.20106    3221.1932 
  360000    807.66107   -893.35853            0   -879.99554   -3126.2335    13.440161    13.567181    13.463008    2.7112787    481.04655    3219.3115 
  361000    760.90509   -892.64326            0   -880.05385    -2527.025    13.440161    13.567181    13.463008    1.8721758    482.88829    3217.4052 
  362000    772.91094   -894.50326            0   -881.71522   -5219.9423    13.440161    13.567181    13.463008    2.4578324    484.73156    3215.5093 
  363000    809.95901   -894.78083            0   -881.37981   -5112.2446    13.440161    13.567181    13.463008    2.8256105    486.61382    3213.8715 
  364000    836.26712   -893.07341            0   -879.23712   -2785.4933    13.440161    13.567181    13.463008    2.4728053    488.45268    3211.9464 
  365000      762.211   -894.49851            0    -881.8875   -6733.0492    13.440161    13.567181    13.463008    2.3478609    490.29131    3210.0205 
  366000    708.00917   -895.65307            0   -883.93885   -6362.6602    13.440161    13.567181    13.463008    1.8751164    492.13734    3208.1434 
  367000    828.89454   -893.68115            0   -879.96684   -3199.6625    13.440161    13.567181    13.463008    1.8793387    493.98633    3206.2858 
  368000    847.83998   -893.40331            0   -879.37555   -4685.8426    13.440161    13.567181    13.463008    1.9549995    495.84726    3204.5054 
  369000    719.61357   -894.27305            0   -882.36683   -4085.0885    13.440161    13.567181    13.463008    2.3517422    497.68816    3202.5956 
  370000    847.90929   -893.98609            0   -879.95718   -3575.4192    13.440161    13.567181    13.463008    2.4056149    499.52395    3200.6534 
  371000    832.17981    -893.9098            0   -880.14114   -2522.9463    13.440161    13.567181    13.463008    2.2314315    501.35378    3198.6741 
  372000     801.1399   -894.84704            0   -881.59194   -7445.8719    13.440161    13.567181    13.463008    1.6099561    503.21003    3196.8637 
  373000    754.81158   -892.66755            0   -880.17896   -6859.8931    13.440161    13.567181    13.463008    1.7770346    505.04867    3194.9416 
  374000    747.42428   -891.40117            0   -879.03481   -1537.4663    13.440161    13.567181    13.463008    2.4019616    506.89255    3193.0531 
  375000     727.9394   -893.99047            0    -881.9465   -5173.7712    13.440161    13.567181    13.463008    1.8799853    508.73214     3191.138 
  376000    823.78164   -894.01664            0   -880.38693   -6172.6936    13.440161    13.567181    13.463008    2.0050054    510.56949    3189.2095 
  377000    855.51897   -893.09207            0   -878.93725   -1193.2422    13.440161    13.567181    13.463008    2.7115581    512.42775    3187.4116 
  378000    796.81286   -895.34118            0   -882.15767   -6949.3729    13.440161    13.567181    13.463008    1.9334633    514.26649    3185.4924 
  379000    797.31181   -893.21656            0   -880.02479   -1837.7682    13.440161    13.567181    13.463008    2.3066633    516.11288     3183.621 
  380000      931.133   -894.88775            0   -879.48187   -3219.4672    13.440161    13.567181    13.463008     2.301553    517.97498    3181.8463 
  381000    751.18545   -893.08309            0    -880.6545   -2555.6019    13.440161    13.567181    13.463008    2.3786751    519.83057    3180.0312 
  382000    770.23161   -893.34688            0   -880.60316   -6355.0526    13.440161    13.567181    13.463008     2.289694    521.68272    3178.1947 
  383000    813.46659   -893.78571            0   -880.32666   -4122.8691    13.440161    13.567181    13.463008     2.634604     523.5708    3176.5762 
  384000    790.93972   -893.67899            0   -880.59266   -2489.7644    13.440161    13.567181    13.463008    2.4664826    525.47344    3175.0437 
  385000    772.24355   -892.92865            0   -880.15165   -3837.5969    13.440161    13.567181    13.463008    2.1004439    527.32533    3173.2033 
  386000    848.49143   -893.34334            0    -879.3048   -1402.7676    13.440161    13.567181    13.463008    2.1398909    529.17502    3171.3496 
  387000    747.64032    -894.6181            0   -882.24817   -4806.0835    13.440161    13.567181    13.463008    2.8617858    531.02652    3169.5067 
  388000    843.79046   -893.31991            0   -879.35914   -5023.3372    13.440161    13.567181    13.463008    2.6899466    532.86754    3167.6015 
  389000    780.00126   -892.74032            0   -879.83496   -3639.4877    13.440161    13.567181    13.463008    2.4778992    534.70624     3165.683 
  390000    702.60303   -893.05143            0   -881.42665   -5324.2716    13.440161    13.567181    13.463008    2.4687812    536.53802    3163.7242 
  391000    892.19683    -892.6401            0   -877.87843   -5053.5113    13.440161    13.567181    13.463008    1.9924547    538.37039    3161.7698 
  392000    779.11146    -893.4508            0   -880.56017   -6610.4373    13.440161    13.567181    13.463008    2.3930533    540.20272    3159.8159 
  393000    760.47686   -893.36837            0   -880.78605   -3162.4856    13.440161    13.567181    13.463008    2.2198983    542.03986    3157.8909 
  394000    803.55142   -892.81489            0   -879.51989   -3319.8621    13.440161    13.567181    13.463008    2.9023146    543.87817    3155.9733 
  395000    902.03652   -893.11448            0   -878.19002   -6708.9439    13.440161    13.567181    13.463008    1.9713899    545.71772    3154.0634 
  396000    802.44274   -894.33435            0    -881.0577   -4113.7266    13.440161    13.567181    13.463008     2.038008    547.56227    3152.1828 
  397000    857.74529   -893.46833            0   -879.27668   -5155.9295    13.440161    13.567181    13.463008     2.181974    549.43869    3150.4851 
  398000    846.07423   -892.75427            0   -878.75572   -4131.8086    13.440161    13.567181    13.463008    2.4510522    551.27244    3148.5426 
  399000    809.38609   -894.06428            0   -880.67274   -4320.4771    13.440161    13.567181    13.463008    2.2252892    553.10666    3146.6034 
  400000    870.39381   -893.91935            0   -879.51843   -1335.7297    13.440161    13.567181    13.463008    2.3519185    554.94111    3144.6663 
  401000     785.2701   -892.91614            0   -879.92361   -4097.9798    13.440161    13.567181    13.463008    3.0881013    556.83931    3143.0897 
  402000    677.88117   -893.29003            0   -882.07428   -4035.3355    13.440161    13.567181    13.463008    3.2033682    558.67524    3141.1608 
  403000    823.86541    -892.6208            0    -878.9897   -5514.9907    13.440161    13.567181    13.463008    2.4246369    560.50754    3139.2122 
  404000    764.12456   -892.93138            0   -880.28871   -5739.1862    13.440161    13.567181    13.463008    2.8913672    562.34653    3137.3017 
  405000    726.88625   -894.13166            0   -882.10511   -5351.5941    13.440161    13.567181    13.463008    2.3349547    564.20594    3135.5051 
  406000    756.85736   -893.98651            0   -881.46408   -5789.9935    13.440161    13.567181    13.463008    1.7070905    566.03796    3133.5566 
  407000    854.31424   -893.33194            0   -879.19706   -1556.2459    13.440161    13.567181    13.463008    2.6751845    567.87467    3131.6346 
  408000    677.68155   -893.53281            0   -882.32037   -7081.4864    13.440161    13.567181    13.463008    2.0051875    569.70948    3129.7027 
  409000    788.17854   -894.64708            0   -881.60643   -3816.8922    13.440161    13.567181    13.463008    1.8604253    571.54684    3127.7855 
  410000    845.04192   -893.90235            0   -879.92088   -3601.1911    13.440161    13.567181    13.463008    1.9042291    573.38834    3125.8913 
  411000    846.22338   -893.14204            0   -879.14102   -5606.3513    13.440161    13.567181    13.463008    2.0645733    575.23649    3124.0335 
  412000    721.35401   -893.99153            0   -882.05651   -7504.3837    13.440161    13.567181    13.463008    1.9986623    577.08785    3122.1932 
  413000    855.35887   -893.18461            0   -879.03244   -5088.9936    13.440161    13.567181    13.463008    2.3667293    578.92841    3120.2947 
  414000    759.27308   -892.41548            0   -879.85308   -1337.6703    13.440161    13.567181    13.463008    2.3221411    580.76825    3118.3926 
  415000    737.46109   -893.77616            0   -881.57464   -4757.0316    13.440161    13.567181    13.463008    2.3396823    582.60642    3116.4819 
  416000    871.28336   -893.53759            0   -879.12195    1231.0621    13.440161    13.567181    13.463008    2.9505688     584.4427    3114.5617 
  417000    823.40654   -893.43435            0   -879.81085   -4898.2621    13.440161    13.567181    13.463008    2.9018268     586.2795    3112.6448 
  418000    763.82705   -894.15212            0   -881.51438   -4336.4533    13.440161    13.567181    13.463008     4.371761     588.1154    3110.7236 
  419000    770.77986   -892.98272            0   -880.22994   -2631.6202    13.440161    13.567181    13.463008    2.5607279    589.94947    3108.7933 
  420000    826.09746   -893.88849            0   -880.22046   -3788.9215    13.440161    13.567181    13.463008    2.5536906    591.78194    3106.8552 
  421000    764.91696   -894.92282            0   -882.26704   -6041.6716    13.440161    13.567181    13.463008    2.5399655    593.62106    3104.9525 
  422000    818.10608   -894.05467            0   -880.51886   -3537.8785    13.440161    13.567181    13.463008    2.6569858    595.45669    3103.0321 
  423000    826.40787   -893.39377            0   -879.72061   -967.28479    13.440161    13.567181    13.463008    2.2999762    597.29169    3101.1089 
  424000    732.76636   -894.66269            0   -882.53886     -5792.43    13.440161    13.567181    13.463008    2.5344735    599.12393    3099.1719 
  425000    811.12281   -895.15359            0   -881.73332   -3884.2652    13.440161    13.567181    13.463008    2.5800843    600.95598    3097.2346 
  426000    817.33521   -892.74195            0    -879.2189   -3043.8755    13.440161    13.567181    13.463008    2.8905673    602.80993    3095.4105 
  427000    814.13087   -894.51346            0   -881.04342   -4182.1697    13.440161    13.567181    13.463008    2.5836941    604.64396    3093.4842 
  428000    837.63104   -895.07299            0   -881.21414   -6958.9914    13.440161    13.567181    13.463008    2.5334076    606.47724    3091.5547 
  429000    828.61273   -892.49423            0   -878.78458   -2040.9201    13.440161    13.567181    13.463008     2.231041    608.31294    3089.6381 
  430000     843.9503    -895.3186            0   -881.35519   -7830.9705    13.440161    13.567181    13.463008    2.2811383    610.18564    3087.9092 
  431000     910.3702   -893.42885            0   -878.36651   -3691.8738    13.440161    13.567181    13.463008    1.8579636    612.01948    3085.9834 
  432000    821.79054   -892.30793            0   -878.71116   -536.71273    13.440161    13.567181    13.463008    2.1529371    613.86949    3084.1395 
  433000     733.1288   -893.06731            0   -880.93747    -1867.498    13.440161    13.567181    13.463008    1.8591942    615.70358    3082.2158 
  434000    832.94651   -892.07202            0   -878.29068   -628.78237    13.440161    13.567181    13.463008    2.2762284     617.5352    3080.2804 
  435000    758.44979     -891.734            0   -879.18523   -506.25439    13.440161    13.567181    13.463008    2.1654733    619.36857    3078.3543 
  436000    845.61557   -894.48012            0   -880.48916   -4458.8687    13.440161    13.567181    13.463008    2.0139786    621.31888    3077.0078 
  437000    807.69211   -892.96683            0   -879.60333   -2391.2284    13.440161    13.567181    13.463008     2.019868    623.16594    3075.1482 
  438000    793.21491    -890.9983            0   -877.87433   -215.20571    13.440161    13.567181    13.463008    2.8519654    625.00391    3073.2441 
  439000    758.77775   -893.71929            0   -881.16508   -6580.0583    13.440161    13.567181    13.463008    2.4367881    626.86718    3071.4643 
  440000     859.5696   -893.74729            0   -879.52546   -5703.6231    13.440161    13.567181    13.463008     2.473557     628.7303    3069.6832 
  441000    909.38531    -890.6634            0   -875.61735   -1434.9283    13.440161    13.567181    13.463008    3.0337782    630.59549    3067.9118 
  442000    803.96996   -892.67018            0   -879.36826    345.60142    13.440161    13.567181    13.463008    2.2547064    632.43114    3065.9966 
  443000    744.02423   -893.44597            0   -881.13587   -4998.8343    13.440161    13.567181    13.463008    2.4016152    634.26047    3064.0513 
  444000    829.76442   -892.98553            0   -879.25683   -5983.2576    13.440161    13.567181    13.463008    1.9916584    636.09244    3062.1194 
  445000    784.00085   -891.87934            0   -878.90781   -2638.0084    13.440161    13.567181    13.463008    2.3989565    637.96174    3060.3672 
  446000    735.73067   -893.55893            0   -881.38605   -4289.2855    13.440161    13.567181    13.463008    2.2482193    639.79571    3058.4454 
  447000    822.88405   -892.51809            0   -878.90323   -4027.3855    13.440161    13.567181    13.463008    2.7215058    641.69262    3056.8239 
  448000    801.51851   -894.10649            0   -880.84513   -4338.0864    13.440161    13.567181    13.463008    1.8365725    643.52438    3054.8916 
  449000     773.6814   -894.01703            0   -881.21624   -4882.0793    13.440161    13.567181    13.463008    3.2462644    645.35644    3052.9613 
  450000    789.23937   -892.50444            0   -879.44624   -888.12846    13.440161    13.567181    13.463008    2.3381019    647.18855    3051.0317 
  451000    837.26349   -893.98295            0   -880.13017   -2284.6337    13.440161    13.567181    13.463008    2.3872438    649.07978    3049.3805 
  452000    741.62026   -892.74041            0   -880.47009   -438.46353    13.440161    13.567181    13.463008    3.0948336    650.91144     3047.449 
  453000    806.89503   -893.43984            0   -880.08952   -3768.2239    13.440161    13.567181    13.463008    2.2710038    652.75084    3045.5542 
  454000    851.28133    -892.8635            0    -878.7788   -2980.0715    13.440161    13.567181    13.463008     2.731477    654.60231    3043.7158 
  455000    878.69185   -893.30593            0   -878.76771   -2995.5426    13.440161    13.567181    13.463008    2.8599879     656.4833    3042.0142 
  456000    739.64715   -893.42169            0     -881.184   -2887.8172    13.440161    13.567181    13.463008    2.1718311    658.31353    3040.0771 
  457000     850.5336   -892.07733            0   -878.00499   -488.96876    13.440161    13.567181    13.463008    3.1833512    660.21045    3038.4475 
  458000    768.40786   -893.01161            0   -880.29808   -1133.8163    13.440161    13.567181    13.463008    2.2271585    662.04269    3036.5198 
  459000    845.38565   -894.37659            0   -880.38944   -2227.8959    13.440161    13.567181    13.463008    2.1275833    663.99552    3035.1439 
  460000    849.54286   -892.56637            0   -878.51043   -2985.2929    13.440161    13.567181    13.463008    2.4632431    665.82758    3033.2145 
  461000    775.70112   -894.41941            0    -881.5852   -2065.0393    13.440161    13.567181    13.463008     2.154112    667.66107    3031.2922 
  462000    856.17027   -894.85123            0   -880.68563   -2976.6537    13.440161    13.567181    13.463008     1.561093    669.49689     3029.381 
  463000    720.16941    -891.7733            0   -879.85789   -5654.2551    13.440161    13.567181    13.463008    2.4304104     671.3286    3027.4516 
  464000    780.12347    -893.0425            0   -880.13513   -2220.3061    13.440161    13.567181    13.463008    3.1578781    673.20865      3025.74 
  465000    668.48465   -893.72422            0   -882.66394   -6005.3303    13.440161    13.567181    13.463008    2.0685571    675.10484    3024.0998 
  466000    857.05138   -893.69179            0   -879.51162   -252.19826    13.440161    13.567181    13.463008    2.4254402    676.94343     3022.201 
  467000    767.50324   -892.97069            0   -880.27212   -4263.2996    13.440161    13.567181    13.463008    2.2259703    678.77871    3020.2878 
  468000    709.91133   -894.91265            0   -883.16695   -7083.3968    13.440161    13.567181    13.463008    2.1326705    680.69575    3018.7377 
  469000    775.10422    -892.4252            0   -879.60087   -4503.2444    13.440161    13.567181    13.463008    2.3594968    682.53139    3016.8257 
  470000    802.16678   -892.78259            0    -879.5105   -2873.6188    13.440161    13.567181    13.463008    2.5610332    684.36719    3014.9149 
  471000    703.42303   -893.61654            0    -881.9782    -5932.839    13.440161    13.567181    13.463008    1.9002206    686.19697    3012.9781 
  472000    881.77222   -892.83262            0   -878.24343   -1812.0036    13.440161    13.567181    13.463008    2.2081665    688.07436    3011.2502 
  473000    793.52239    -893.7281            0   -880.59904   -4645.6884    13.440161    13.567181    13.463008    3.0292382    689.91052    3009.3416 
  474000    832.92779   -894.49051            0   -880.70947   -5621.5439    13.440161    13.567181    13.463008    2.1434043    691.74374    3007.4207 
  475000    835.73757   -891.67439            0   -877.84686   -1200.4945    13.440161    13.567181    13.463008     2.025292    693.58227    3005.5232 
  476000    769.66122    -893.4386            0   -880.70433   -2270.7013    13.440161    13.567181    13.463008    2.1397529    695.46977    3003.8375 
  477000    806.21095   -893.31105            0   -879.97205   -3162.1219    13.440161    13.567181    13.463008    3.6660826    697.30591    3001.9297 
  478000    958.15892   -892.19723            0   -876.34421   -2990.2476    13.440161    13.567181    13.463008    2.3328772    699.23457    3000.4192 
  479000    842.45053   -893.48106            0   -879.54247   -1215.7535    13.440161    13.567181    13.463008    2.3560191    701.06756    2998.4974 
  480000    728.39449   -893.14026            0   -881.08875   -4455.3374    13.440161    13.567181    13.463008    2.5348449    702.89909    2996.5698 
  481000    895.16988    -893.0232            0   -878.21235   -3633.4119    13.440161    13.567181    13.463008    2.0760224    704.73249    2994.6507 
  482000    753.24727   -892.30971            0   -879.84701   -4501.7253    13.440161    13.567181    13.463008    1.7991969    706.64263     2993.057 
  483000    835.93427   -894.29441            0   -880.46363   -4685.7474    13.440161    13.567181    13.463008    2.1012368    708.48208    2991.1632 
  484000    854.62221   -892.82435            0   -878.68437   -1047.9218    13.440161    13.567181    13.463008    2.8121034    710.38058    2989.5183 
  485000    928.52381   -893.10009            0   -877.73738   -1482.3282    13.440161    13.567181    13.463008    2.1118577    712.21642    2987.6092 
  486000    717.38937    -892.5925            0   -880.72308   -4741.0116    13.440161    13.567181    13.463008    2.0176965    714.05356    2985.7058 
  487000     778.9569    -892.3682            0   -879.48012   -5474.8171    13.440161    13.567181    13.463008    2.6017866    715.90507    2983.8627 
  488000    801.82755   -891.08223            0   -877.81576   -3107.5472    13.440161    13.567181    13.463008    3.0146186    717.74502    2981.9716 
  489000    776.42252   -894.15967            0   -881.31352   -2673.5149    13.440161    13.567181    13.463008    1.9239822    719.60992     2980.184 
  490000    881.22276   -893.75364            0   -879.17355    -5052.596    13.440161    13.567181    13.463008    1.9575576     721.4422    2978.2614 
  491000    838.44127   -893.49849            0   -879.62622   -4614.6469    13.440161    13.567181    13.463008    3.7896803    723.28016    2976.3626 
  492000    773.85381   -893.98275            0   -881.17911   -6686.1861    13.440161    13.567181    13.463008     2.534513    725.11486    2974.4508 
  493000    859.66192   -892.96085            0   -878.73748   -2024.1754    13.440161    13.567181    13.463008    2.1504945    727.00244    2972.7555 
  494000    790.43787   -894.84408            0   -881.76605   -6550.9255    13.440161    13.567181    13.463008    2.1417399    728.84272    2970.8665 
  495000    763.02953    -893.2481            0   -880.62354   -3965.1817    13.440161    13.567181    13.463008    2.0569219    730.79812    2969.4455 
  496000    878.99672   -894.02641            0   -879.48315   -2796.2454    13.440161    13.567181    13.463008    2.8536047    732.62887    2967.5169 
  497000    774.73641   -893.56273            0   -880.74449   -6241.2483    13.440161    13.567181    13.463008    2.0447218    734.45982    2965.5897 
  498000    725.69151   -894.57883            0   -882.57205    -3825.096    13.440161    13.567181    13.463008    2.1065655    736.29117    2963.6645 
  499000     685.2921   -891.20843            0   -879.87007    -5898.656    13.440161    13.567181    13.463008    2.1088496    738.22712    2962.1595 
  500000    838.15148    -893.9262            0   -880.05873   -2935.8741    13.440161    13.567181    13.463008    2.7046604    740.06153    2960.2461 
  501000    729.40311   -894.82827            0   -882.76008   -6294.7022    13.440161    13.567181    13.463008    2.0961584    741.89683    2958.3367 
  502000    845.82463   -893.48465            0   -879.49023   -2326.0908    13.440161    13.567181    13.463008    2.5537097    743.73229    2956.4284 
  503000    796.18885   -893.93696            0   -880.76377    -2144.924    13.440161    13.567181    13.463008    2.1878474     745.5692    2954.5261 
  504000    741.34566   -894.64453            0   -882.37875   -5965.0093    13.440161    13.567181    13.463008    1.7813546    747.41516    2952.6599 
  505000    836.17534   -892.71075            0   -878.87598   -7949.9219    13.440161    13.567181    13.463008    2.6111685     749.2652    2950.8099 
  506000    770.97935   -894.00235            0   -881.24627   -4473.7222    13.440161    13.567181    13.463008    2.1802881    751.11816    2948.9713 
  507000    747.51517   -893.92286            0   -881.55499   -5612.9784    13.440161    13.567181    13.463008    1.9840129    752.96636    2947.1141 
  508000    811.44832   -893.62658            0   -880.20092   -3563.5405    13.440161    13.567181    13.463008    2.4023577    754.79744      2945.19 
  509000    833.26457   -893.78395            0   -879.99734   -2368.2277    13.440161    13.567181    13.463008    2.3992439     756.6499    2943.3496 
  510000     732.0629   -894.09264            0   -881.98044   -7339.7883    13.440161    13.567181    13.463008    2.2800467    758.49751    2941.4904 
  511000    814.65401   -892.92623            0   -879.44753   -4704.2939    13.440161    13.567181    13.463008    2.2215981    760.33107    2939.5768 
  512000    804.00835   -892.97632            0   -879.67377   -4068.1161    13.440161    13.567181    13.463008    1.9863017    762.20211    2937.8081 
  513000    834.76981   -894.51228            0   -880.70076    -2415.203    13.440161    13.567181    13.463008    2.0292064    764.03963    2935.9102 
  514000    784.68796   -893.48601            0   -880.50312    -3518.939    13.440161    13.567181    13.463008     2.258355    765.87568    2934.0068 
  515000    913.38023   -893.71544            0   -878.60329   -1937.0874    13.440161    13.567181    13.463008    3.0088397    767.76888    2932.3221 
  516000    796.17183   -894.55047            0   -881.37756   -6361.4133    13.440161    13.567181    13.463008    1.7848111    769.68586    2930.7269 
  517000     782.2163   -893.94056            0   -880.99855   -2514.8077    13.440161    13.567181    13.463008    2.6506472    771.51537    2928.7982 
  518000    879.49437   -894.22243            0   -879.67094   -4484.6279    13.440161    13.567181    13.463008    2.0069373    773.35328    2926.9017 
  519000    749.52552   -893.04856            0   -880.64744   -5708.0716    13.440161    13.567181    13.463008     2.181226    775.18925    2924.9981 
  520000    740.68044    -894.0677            0   -881.81292   -6539.7491    13.440161    13.567181    13.463008    2.2030893    777.09762    2923.3672 
  521000    798.30965   -892.57031            0   -879.36204   -4007.5065    13.440161    13.567181    13.463008    2.2750235    778.92685    2921.4382 
  522000    749.89843   -892.53735            0   -880.13005   -2512.8116    13.440161    13.567181    13.463008    1.9165969    780.76449    2919.5412 
  523000    727.22566    -893.9686            0   -881.93644   -6364.3695    13.440161    13.567181    13.463008    1.9223455     782.5966    2917.6237 
  524000    773.17465   -892.65022            0   -879.85782   -2170.2822    13.440161    13.567181    13.463008    3.3096845    784.46931    2915.8576 
  525000    766.41167   -893.93235            0   -881.25184   -4989.6726    13.440161    13.567181    13.463008    2.7039463    786.30229    2913.9438 
  526000     704.4623   -893.82843            0   -882.17289   -5730.8747    13.440161    13.567181    13.463008    1.8745366    788.13792    2912.0401 
  527000    878.37099   -894.23891            0     -879.706     -3771.53    13.440161    13.567181    13.463008    2.3505634    789.97438    2910.1398 
  528000    702.15231   -893.35029            0   -881.73297   -4222.4575    13.440161    13.567181    13.463008    2.3103602    791.84909    2908.3803 
  529000    726.05787   -894.34484            0   -882.33199    -5202.109    13.440161    13.567181    13.463008    1.9791914    793.69112    2906.5006 
  530000    815.62444   -894.01113            0   -880.51638   -3834.8588    13.440161    13.567181    13.463008    2.5511213    795.56384    2904.7331 
  531000    757.94628   -892.10453            0   -879.56408   -1318.8925    13.440161    13.567181    13.463008    2.2676395    797.40685     2902.857 
  532000    793.81356   -893.92908            0    -880.7952   -6544.1996    13.440161    13.567181    13.463008     2.117097     799.2512    2900.9858 
  533000    764.56929   -894.76635            0   -882.11632   -3413.3853    13.440161    13.567181    13.463008    2.1221144    801.12527    2899.2224 
  534000    796.09753   -892.06045            0   -878.88878   -676.83599    13.440161    13.567181    13.463008    2.0261075    803.03306    2897.5801 
  535000    870.44157   -895.49521            0    -881.0935   -6786.4283    13.440161    13.567181    13.463008     2.311457    804.89808    2895.7827 
  536000    851.41746   -894.72362            0   -880.63667   -7660.8563    13.440161    13.567181    13.463008    1.7225388    806.73324     2893.878 
  537000    868.91494   -891.82884            0   -877.45239   -1568.6591    13.440161    13.567181    13.463008    2.7052855    808.59791     2892.079 
  538000    836.81786   -894.78793            0   -880.94253   -5121.4605    13.440161    13.567181    13.463008    1.9843665    810.42864    2890.1588 
  539000    777.70666   -893.25929            0    -880.3919     -4731.76    13.440161    13.567181    13.463008    2.6959467    812.28236    2888.3206 
  540000    864.84445     -892.312            0   -878.00289   -833.94985    13.440161    13.567181    13.463008     2.983938    814.11879    2886.4212 
  541000     822.7845   -894.37578            0   -880.76256   -3677.3956    13.440161    13.567181    13.463008    2.0648216    815.97073    2884.5768 
  542000    800.10896    -893.6556            0   -880.41756   -5547.4514    13.440161    13.567181    13.463008    2.9631502    817.80913    2882.6847 
  543000    835.20308   -892.16953            0   -878.35084   -1555.3121    13.440161    13.567181    13.463008    1.9769577    819.66056    2880.8386 
  544000    727.77997   -893.60073            0   -881.55939   -5648.9234    13.440161    13.567181    13.463008    1.9426323    821.49173    2878.9215 
  545000    795.64201   -893.53382            0   -880.36968   -2290.9978    13.440161    13.567181    13.463008    2.0688811    823.33919    2877.0617 
  546000    843.60643   -892.85488            0   -878.89716   -2761.1977    13.440161    13.567181    13.463008    1.8364825    825.17679    2875.1676 
  547000    744.78309   -894.80241            0   -882.47975   -7488.8122    13.440161    13.567181    13.463008    1.8185534    827.01412    2873.2728 
  548000    901.64315    -894.2926            0   -879.37464   -5267.7861    13.440161    13.567181    13.463008      2.31514    828.85948    2871.4061 
  549000    769.87072   -893.58349            0   -880.84575   -3528.4636    13.440161    13.567181    13.463008    1.8806773    830.69822    2869.5166 
  550000    794.10706    -895.4461            0   -882.30736   -5354.1998    13.440161    13.567181    13.463008    2.5413773    832.53203    2867.6103 
  551000    832.87477   -894.08667            0   -880.30651   -6750.7616    13.440161    13.567181    13.463008    2.3928929     834.3875    2865.7788 
  552000    850.74288   -893.70855            0   -879.63276   -4937.2297    13.440161    13.567181    13.463008    2.0809667    836.22072     2863.871 
  553000    812.67112   -896.07069            0   -882.62481   -6086.0697    13.440161    13.567181    13.463008    1.6116089    838.07124    2862.0225 
  554000    796.16431   -892.88581            0   -879.71303   -3784.8807    13.440161    13.567181    13.463008    2.8478076    839.91377    2860.1469 
  555000    826.82586   -893.86483            0   -880.18475   -5480.1552    13.440161    13.567181    13.463008    1.7729181    841.74399    2858.2296 
  556000     744.9097   -895.13682            0   -882.81207   -4009.3618    13.440161    13.567181    13.463008    2.2842728    843.58702    2856.3561 
  557000    735.15346   -894.41672            0   -882.25339   -5987.2068    13.440161    13.567181    13.463008    2.0992228     845.4178    2854.4413 
  558000    791.17289   -893.11877            0   -880.02858   -4458.5792    13.440161    13.567181    13.463008    3.0752781    847.26715    2852.5894 
  559000    862.27934   -894.06316            0   -879.79649   -796.94493    13.440161    13.567181    13.463008    2.4078316     849.1096    2850.7144 
  560000    732.08928   -894.66513            0   -882.55249   -6512.8639    13.440161    13.567181    13.463008    2.1486909    850.95303    2848.8427 
  561000    882.66155   -894.02792            0   -879.42402   -5483.4925    13.440161    13.567181    13.463008    2.5346846    852.78494    2846.9328 
  562000     825.5914   -893.84103            0   -880.18137   -3875.3583    13.440161    13.567181    13.463008     2.427477    854.61984    2845.0331 
  563000    735.71835   -893.87777            0   -881.70509   -4491.0801    13.440161    13.567181    13.463008    2.4808723    856.45061    2843.1201 
  564000    801.02447   -894.51503            0   -881.26184   -6190.3694    13.440161    13.567181    13.463008    2.0549514    858.29917    2841.2662 
  565000    909.82413   -894.23438            0   -879.18107   -3721.6516    13.440161    13.567181    13.463008    1.9509035     860.1354    2839.3717 
  566000    805.31348   -895.36896            0    -882.0448   -5987.8332    13.440161    13.567181    13.463008    1.7569581    861.99366      2837.55 
  567000    819.80891   -892.09465            0   -878.53067   -1614.2007    13.440161    13.567181    13.463008    2.3149344    863.82922    2835.6535 
  568000    852.50729   -894.33945            0   -880.23447   -4268.2242    13.440161    13.567181    13.463008    2.1241429    865.72676    2833.9603 
  569000    778.43316   -894.56888            0   -881.68947   -2607.8747    13.440161    13.567181    13.463008     3.039155    867.57192    2832.0951 
  570000    861.23443   -892.64901            0   -878.39963   -1679.4579    13.440161    13.567181    13.463008    2.4720523    869.45345    2830.3485 
  571000    739.05434   -892.12842            0   -879.90055   -4899.6075    13.440161    13.567181    13.463008    1.9149953    871.29104    2828.4586 
  572000     858.8894   -895.01679            0   -880.80621   -4630.6931    13.440161    13.567181    13.463008    2.5727077    873.13002    2826.5734 
  573000    764.85873     -894.498            0   -881.84318   -6181.0447    13.440161    13.567181    13.463008    2.1324754      874.967     2824.682 
  574000    819.91795   -893.48944            0   -879.92366   -3468.3695    13.440161    13.567181    13.463008    2.8637817    876.83519    2822.8914 
  575000    851.74512   -893.68083            0   -879.58845   -7388.5998    13.440161    13.567181    13.463008    1.9540755    878.67231    2821.0006 
  576000    723.86286   -894.27555            0   -882.29902   -6235.3263    13.440161    13.567181    13.463008    2.1490006    880.57224    2819.3111 
  577000    877.07906    -894.4364            0   -879.92487   -6142.8454    13.440161    13.567181    13.463008    2.1095051    882.41386    2817.4346 
  578000    827.73022   -893.70218            0   -880.00714   -5729.0117    13.440161    13.567181    13.463008    3.6263425    884.28469    2815.6513 
  579000    748.42562   -895.51755            0   -883.13463   -6081.2599    13.440161    13.567181    13.463008    2.2018984    886.16398    2813.8944 
  580000    709.37445   -892.06199            0   -880.32518    -4530.652    13.440161    13.567181    13.463008    2.1362017    888.12388    2812.3923 
  581000    799.65367   -893.38537            0   -880.15486   -2033.4359    13.440161    13.567181    13.463008    2.2687139    890.07242    2810.8524 
  582000    731.54175   -895.16306            0   -883.05949   -4988.1047    13.440161    13.567181    13.463008    1.6396666    892.04231    2809.3781 
  583000    766.35066   -892.75691            0   -880.07741   -2082.4856    13.440161    13.567181    13.463008    2.9852167    893.94889    2807.7028 
  584000    755.51472   -892.54713            0   -880.04691   -5219.3404    13.440161    13.567181    13.463008    2.2896551    895.83902    2805.9751 
  585000    676.69843   -893.65452            0   -882.45834   -3720.7899    13.440161    13.567181    13.463008    1.7260328    897.72482    2804.2332 
  586000    775.62189   -893.18338            0   -880.35049    -4711.693    13.440161    13.567181    13.463008     2.622498    899.57552    2802.3814 
  587000    864.33509   -894.18981            0   -879.88913   -3254.5346    13.440161    13.567181    13.463008    2.0779945    901.43035    2800.5424 
  588000     757.4765   -895.10898            0    -882.5763   -8143.3161    13.440161    13.567181    13.463008    2.3818316    903.27552    2798.6733 
  589000    895.84063   -894.22209            0   -879.40014     -4843.67    13.440161    13.567181    13.463008    3.0340945    905.18746    2797.0107 
  590000    728.94971    -892.3439            0   -880.28321   -4087.2333    13.440161    13.567181    13.463008    3.1333877    907.03927    2795.1618 
  591000    743.60981   -893.98108            0   -881.67783   -5241.3216    13.440161    13.567181    13.463008    1.9083652    908.93038    2793.4337 
  592000    898.46121   -892.91597            0   -878.05066   -3881.7319    13.440161    13.567181    13.463008    2.5927111    910.77324     2791.557 
  593000    773.68669   -893.71631            0   -880.91543   -3445.3156    13.440161    13.567181    13.463008    2.3414574    912.60414    2789.6439 
  594000    781.36866   -893.55799            0   -880.63001     -3938.88    13.440161    13.567181    13.463008    1.4622319    914.45505    2787.7921 
  595000    904.71407   -892.57149            0   -877.60273   -1447.9234    13.440161    13.567181    13.463008    2.5353279    916.34561    2786.0609 
  596000    755.80566   -892.75486            0   -880.24983   -3031.0809    13.440161    13.567181    13.463008    3.0127913    918.21698    2784.2708 
  597000    783.74092   -893.27366            0   -880.30643   -5352.9448    13.440161    13.567181    13.463008    2.1777663     920.1152    2782.5617 
  598000    783.22951   -890.17122            0   -877.21245   -1506.1972    13.440161    13.567181    13.463008    2.3293308    921.94627    2780.6492 
  599000    840.08607   -894.09226            0   -880.19278   -5167.3002    13.440161    13.567181    13.463008     2.292874    923.77768    2778.7381 
  600000    759.79176   -892.88104            0   -880.31006   -3585.9082    13.440161    13.567181    13.463008    1.8530082    925.68837    2777.0651 
  601000    842.98659   -893.39316            0   -879.44569   -2386.2917    13.440161    13.567181    13.463008    2.6727492    927.51819    2775.1492 
  602000    802.95155   -893.81654            0   -880.53146   -2464.3497    13.440161    13.567181    13.463008    2.3803841     929.4434    2773.5184 
  603000    816.92312    -895.5917            0   -882.07546   -5696.6831    13.440161    13.567181    13.463008    2.1802179    931.27212    2771.5991 
  604000    898.60141    -893.5096            0   -878.64197   -51.010229    13.440161    13.567181    13.463008    2.6594899    933.10807    2769.7017 
  605000     870.5487   -895.49437            0   -881.09088   -1389.0274    13.440161    13.567181    13.463008    1.8879512    934.94407    2767.8047 
  606000    740.23557    -893.3014            0   -881.05398   -3947.0865    13.440161    13.567181    13.463008    2.1109081    936.99393    2766.5394 
  607000     769.5952   -892.93052            0   -880.19734   -5140.1394    13.440161    13.567181    13.463008     1.778385    938.82484    2764.6262 
  608000    927.21677   -893.68599            0   -878.34491   -4137.7669    13.440161    13.567181    13.463008    2.0926312    940.68688    2762.8048 
  609000    848.38572   -894.44458            0   -880.40779     -2472.19    13.440161    13.567181    13.463008    2.0144955    942.51952    2760.8971 
  610000    749.80601   -893.86488            0   -881.45911   -4878.7038    13.440161    13.567181    13.463008    2.0158968    944.35723    2759.0045 
  611000     925.8123    -893.0976            0   -877.77976   -3917.1411    13.440161    13.567181    13.463008    1.9563034     946.1879    2757.0916 
  612000    824.05379   -892.83819            0   -879.20397   -5691.3553    13.440161    13.567181    13.463008     2.162169    948.06619    2755.3174 
  613000    782.78176   -894.29676            0    -881.3454   -4664.4909    13.440161    13.567181    13.463008    2.3409292    949.90705    2753.4343 
  614000    871.31762   -895.36116            0   -880.94495   -4168.6236    13.440161    13.567181    13.463008    2.0087866    951.88015    2751.9337 
  615000    784.79721   -891.54842            0   -878.56372   -2371.2152    13.440161    13.567181    13.463008      1.99894    953.73313    2750.0848 
  616000    750.44502    -893.8543            0   -881.43796   -6355.6468    13.440161    13.567181    13.463008    1.9503764    955.58345    2748.2284 
  617000    766.68693   -893.12847            0   -880.44341   -3695.0785    13.440161    13.567181    13.463008    2.7133405    957.47252    2746.4831 
  618000    862.77113   -893.72506            0   -879.45025   -1701.8726    13.440161    13.567181    13.463008     2.033697    959.33469    2744.6603 
  619000    806.56997   -892.09884            0    -878.7539   -1550.6203    13.440161    13.567181    13.463008    3.3946315    961.25941    2743.0158 
  620000    741.57442   -893.87492            0   -881.60535   -3019.5113    13.440161    13.567181    13.463008    2.2931225    963.12449    2741.2005 
  621000    893.26667    -893.4489            0   -878.66953   -3678.5452    13.440161    13.567181    13.463008    2.3876333    965.01094    2739.4456 
  622000    865.65931   -893.38297            0   -879.06038   -1202.5659    13.440161    13.567181    13.463008    3.1222904    966.84932    2737.5542 
  623000    787.28138    -894.0027            0    -880.9769   -1915.2687    13.440161    13.567181    13.463008     1.853999    968.78027    2735.9244 
  624000    810.49185   -894.99644            0   -881.58661   -5573.6351    13.440161    13.567181    13.463008    2.6113301    970.61566    2734.0243 
  625000    819.15699   -892.57932            0   -879.02613   -2609.0928    13.440161    13.567181    13.463008    2.1815534     972.5329    2732.3543 
  626000    848.20013   -894.73045            0   -880.69672   -3755.6885    13.440161    13.567181    13.463008    2.4269655    974.36412    2730.4424 
  627000    747.33857   -893.92044            0    -881.5555   -6283.7618    13.440161    13.567181    13.463008    3.0318223    976.20255     2728.551 
  628000    812.33215   -893.48829            0   -880.04801   -4076.6577    13.440161    13.567181    13.463008    1.8706514    978.04045    2726.6582 
  629000    890.88951    -894.9574            0   -880.21737   -6520.2933    13.440161    13.567181    13.463008     2.302854      979.917    2724.8732 
  630000    822.91795   -893.96955            0   -880.35413   -2462.5244    13.440161    13.567181    13.463008    2.0785365    981.78116    2723.0534 
  631000    813.80131   -893.69068            0    -880.2261    -1204.976    13.440161    13.567181    13.463008    1.9916788     983.6971    2721.3767 
  632000    862.86264   -894.43854            0   -880.16222   -3304.3018    13.440161    13.567181    13.463008     1.625074    985.52782     2719.464 
  633000    817.32925   -894.94211            0   -881.41916   -4850.3266    13.440161    13.567181    13.463008    1.8627665    987.36885    2717.5799 
  634000    813.47038   -893.57076            0   -880.11165    -4049.349    13.440161    13.567181    13.463008    1.5708459    989.27608    2715.8778 
  635000    770.98063   -891.83877            0   -879.08267    1052.8638    13.440161    13.567181    13.463008    2.6645383    991.11817    2713.9965 
  636000    679.56409   -893.06641            0   -881.82282   -6434.1063    13.440161    13.567181    13.463008    3.0076228    992.96282    2712.1223 
  637000     694.4204   -891.08645            0   -879.59705   -534.35437    13.440161    13.567181    13.463008    2.8302195    994.79984    2710.2275 
  638000    822.57351    -894.0324            0   -880.42268   -755.51301    13.440161    13.567181    13.463008    3.2592155    996.70381    2708.5148 
  639000    794.67281   -895.11652            0   -881.96842   -5354.0625    13.440161    13.567181    13.463008    1.7769529    998.53254    2706.5975 
  640000    805.31432     -892.867            0   -879.54283   -4118.8534    13.440161    13.567181    13.463008    2.8607294     1000.383    2704.7393 
  641000    760.04952   -893.43465            0    -880.8594    -6665.117    13.440161    13.567181    13.463008    1.8333313    1002.2162    2702.8345 
  642000    688.84469   -895.24013            0   -883.84299    -8859.321    13.440161    13.567181    13.463008     2.088067     1004.125    2701.1333 
  643000    777.99363   -893.68693            0   -880.81479   -3743.5791    13.440161    13.567181    13.463008    2.1454749     1005.967     2699.252 
  644000    880.26436   -893.70724            0   -879.14301   -3986.1853    13.440161    13.567181    13.463008    2.4687262    1007.8047    2697.3596 
  645000    737.04781   -894.44265            0   -882.24797    -5391.982    13.440161    13.567181    13.463008    2.7671653    1009.6399    2695.4605 
  646000    755.03197   -893.10549            0   -880.61326   -385.05233    13.440161    13.567181    13.463008    2.6302505    1011.4928    2693.6091 
  647000    761.18939   -892.56961            0    -879.9755   -5733.3123    13.440161    13.567181    13.463008    2.4836286    1013.3312     2691.719 
  648000    775.45872    -894.3394            0    -881.5092   -4820.2467    13.440161    13.567181    13.463008    1.9228748    1015.1699    2689.8298 
  649000    697.87116   -894.13814            0   -882.59166   -5500.4877    13.440161    13.567181    13.463008    2.9297504    1017.0055    2687.9325 
  650000    765.13649   -892.61982            0    -879.9604   -3086.3633    13.440161    13.567181    13.463008    2.5732544    1018.8535    2686.0684 
  651000     760.4385   -893.99681            0   -881.41513   -7075.4356    13.440161    13.567181    13.463008    2.2598445    1020.7007     2684.202 
  652000    741.74144   -895.04984            0   -882.77751   -6037.7564    13.440161    13.567181    13.463008    1.8118347    1022.5398    2682.3146 
  653000     925.8865   -894.64339            0   -879.32432   -4123.2853    13.440161    13.567181    13.463008    1.9512976    1024.3761    2680.4198 
  654000    743.41744   -893.85173            0   -881.55167   -4593.2168    13.440161    13.567181    13.463008    3.0199615    1026.2266    2678.5626 
  655000    771.58886   -893.60544            0   -880.83928   -545.85436    13.440161    13.567181    13.463008    2.2230124    1028.0713      2676.69 
  656000    787.80727   -892.23772            0   -879.20321   -4731.2521    13.440161    13.567181    13.463008    1.9598234    1029.9122     2674.808 
  657000     709.1553   -893.59273            0   -881.85955   -4662.1987    13.440161    13.567181    13.463008    1.7240065    1031.7428    2672.8991 
  658000    767.08105   -892.18118            0    -879.4896    -94.39916    13.440161    13.567181    13.463008     2.414795    1033.5758    2670.9969 
  659000    877.21981   -892.54353            0   -878.02967   -2195.1778    13.440161    13.567181    13.463008    2.5375188    1035.4079    2669.0926 
  660000    681.69791   -892.88643            0   -881.60753   -4217.1356    13.440161    13.567181    13.463008     2.165469    1037.2399    2667.1882 
  661000    823.65241   -893.25904            0   -879.63146   -4567.4504    13.440161    13.567181    13.463008    2.0459157    1039.0705    2665.2806 
  662000    844.27343   -893.78957            0   -879.82082   -5589.5163    13.440161    13.567181    13.463008    2.2355427    1040.9096    2663.3949 
  663000     692.2584   -893.74401            0   -882.29039   -1660.4257    13.440161    13.567181    13.463008    2.2330291    1042.8537    2661.7775 
  664000    775.63281   -892.74324            0   -879.91017   -3022.9261    13.440161    13.567181    13.463008    2.1981938    1044.6857    2659.8734 
  665000    753.07044   -892.99161            0   -880.53183   -830.07131    13.440161    13.567181    13.463008    2.1255244    1046.5856    2658.1423 
  666000    822.01868   -895.02656            0   -881.42602   -3729.8001    13.440161    13.567181    13.463008     2.645471    1048.4172    2656.2371 
  667000    837.94737   -892.78457            0   -878.92048   -6153.0663    13.440161    13.567181    13.463008    1.9968023    1050.2542    2654.3461 
  668000    712.73939    -892.9347            0   -881.14221   -1814.0441    13.440161    13.567181    13.463008    1.9626234    1052.0926    2652.4588 
  669000    809.51361   -894.82764            0   -881.43399   -5942.6701    13.440161    13.567181    13.463008    1.8280105    1053.9277    2650.5633 
  670000    823.28471   -893.25707            0   -879.63558   -2804.9788    13.440161    13.567181    13.463008       1.9604    1055.7584    2648.6569 
  671000    731.59333    -894.8696            0   -882.76517   -6461.3831    13.440161    13.567181    13.463008    2.4904993    1057.5923    2646.7589 
  672000     742.8279   -893.24985            0   -880.95954   -3150.5394    13.440161    13.567181    13.463008    1.7869002    1059.4217    2644.8499 
  673000    821.48964    -893.4044            0    -879.8126   -1084.2565    13.440161    13.567181    13.463008    2.4195189    1061.2527    2642.9453 
  674000    691.58403   -894.64194            0   -883.19948   -1881.3192    13.440161    13.567181    13.463008    1.8651216    1063.0843    2641.0422 
  675000    813.86063      -895.49            0   -882.02443   -4656.6762    13.440161    13.567181    13.463008    1.8995288    1064.9128    2639.1317 
  676000    796.63676   -893.30713            0   -880.12654    159.31729    13.440161    13.567181    13.463008    1.7742196    1066.7423     2637.224 
  677000    819.37444   -893.23189            0    -879.6751   -5446.4986    13.440161    13.567181    13.463008    2.7752276    1068.5729    2635.3192 
  678000    691.10311   -893.91971            0    -882.4852   -2798.2623    13.440161    13.567181    13.463008    2.0472326    1070.4056      2633.42 
  679000     840.9854   -893.78151            0   -879.86716   -3819.0263    13.440161    13.567181    13.463008     2.178064    1072.2422    2631.5305 
  680000    835.72643   -894.24882            0   -880.42148   -6006.5697    13.440161    13.567181    13.463008    2.3047944    1074.0786    2629.6406 
  681000    770.13969   -896.10533            0   -883.36314   -4012.0648    13.440161    13.567181    13.463008    1.8580374    1075.9603    2627.8617 
  682000    795.24677      -894.12            0    -880.9624   -6450.7983    13.440161    13.567181    13.463008    2.2052048    1077.8678    2626.1453 
  683000    738.14853   -892.11646            0   -879.90357   -5440.6963    13.440161    13.567181    13.463008    2.3714405    1079.7005    2624.2464 
  684000    717.99485   -893.65637            0   -881.77693   -971.14406    13.440161    13.567181    13.463008     2.529868    1081.5599    2622.4124 
  685000    738.19442   -893.85571            0   -881.64206   -6045.8378    13.440161    13.567181    13.463008    2.2307169     1083.435    2620.6162 
  686000    936.74051   -894.88444            0   -879.38579   -1157.7089    13.440161    13.567181    13.463008    2.5167716    1085.3163    2618.8348 
  687000    690.50375   -893.45153            0   -882.02694   -4776.2088    13.440161    13.567181    13.463008    2.4092741    1087.1542    2616.9487 
  688000    911.20191   -894.01646            0   -878.94035   -6023.1244    13.440161    13.567181    13.463008    2.5982652    1089.0139     2615.115 
  689000    845.65473   -894.31404            0   -880.32243   -6170.8813    13.440161    13.567181    13.463008    1.9993474    1090.8484    2613.2208 
  690000    805.73535   -894.78725            0   -881.45612   -5100.0868    13.440161    13.567181    13.463008    2.5816388    1092.6796     2611.319 
  691000    887.25826   -892.34459            0   -877.66463   -3600.1908    13.440161    13.567181    13.463008    2.1930789    1094.5096    2609.4147 
  692000    864.98704    -894.1114            0   -879.79993   -4309.7425    13.440161    13.567181    13.463008    2.6960205    1096.3442    2607.5213 
  693000    747.19252   -893.33855            0   -880.97603   -2597.0853    13.440161    13.567181    13.463008    2.4428414    1098.1736    2605.6159 
  694000    854.65208   -892.52921            0   -878.38873   -2868.7189    13.440161    13.567181    13.463008    2.9198011    1100.0064    2603.7189 
  695000    850.58651   -894.25818            0   -880.18497   -236.31793    13.440161    13.567181    13.463008    3.3347723     1101.838    2601.8192 
  696000      821.051   -894.67035            0   -881.08582   -4410.0066    13.440161    13.567181    13.463008    2.3936714    1103.6722    2599.9257 
  697000    835.34129   -892.06599            0   -878.24502   -3618.0555    13.440161    13.567181    13.463008    2.5077605    1105.5391    2598.1095 
  698000    842.50373   -893.54843            0   -879.60896   -2439.6561    13.440161    13.567181    13.463008    2.3689932    1107.3767    2596.2244 
  699000    758.05902   -893.63332            0   -881.09101   -6049.3334    13.440161    13.567181    13.463008    1.8917056    1109.2205    2594.3538 
  700000    837.93084   -893.31595            0   -879.45213   -3261.5956    13.440161    13.567181    13.463008    4.3757364    1111.0591    2592.4713 
  701000    746.57989   -891.70979            0    -879.3574    2234.0155    13.440161    13.567181    13.463008    2.6985418    1112.8936    2590.5792 
  702000    791.63688    -894.9431            0   -881.84523   -3713.4368    13.440161    13.567181    13.463008    2.2572006    1114.7246    2588.6794 
  703000    872.59005     -893.551            0   -879.11374   -4386.3259    13.440161    13.567181    13.463008    1.9496738    1116.5736    2586.8215 
  704000    860.51347   -893.94158            0   -879.70412   -1769.1917    13.440161    13.567181    13.463008    1.8284773    1118.4105    2584.9355 
  705000     743.6234    -892.9115            0   -880.60802   -5608.5175    13.440161    13.567181    13.463008    2.3518991    1120.2442    2583.0424 
  706000    815.04762   -894.48534            0   -881.00013   -7082.8459    13.440161    13.567181    13.463008    1.7766474    1122.0778    2581.1492 
  707000    898.30801   -893.64167            0    -878.7789   -4274.4062    13.440161    13.567181    13.463008    2.1132444     1123.932    2579.3037 
  708000    689.08063   -892.55686            0   -881.15582   -5066.3125    13.440161    13.567181    13.463008    2.0904652    1125.7709    2577.4229 
  709000    752.96453   -893.54604            0   -881.08802   -5906.1884    13.440161    13.567181    13.463008    3.5410242    1127.6027     2575.526 
  710000     801.1332   -892.85606            0   -879.60107   -2911.3822    13.440161    13.567181    13.463008    1.9965625    1129.4341    2573.6285 
  711000    794.97786   -893.49515            0     -880.342   -2603.9079    13.440161    13.567181    13.463008    2.5051662    1131.2793    2571.7626 
  712000    715.53498   -894.90346            0   -883.06472   -5667.3125    13.440161    13.567181    13.463008    1.7333294    1133.1086    2569.8607 
  713000     820.1394   -894.49572            0   -880.92627     -3295.08    13.440161    13.567181    13.463008    1.9547262    1134.9402    2567.9642 
  714000    797.06673   -892.96878            0   -879.78108   -3142.6134    13.440161    13.567181    13.463008    2.1815346    1136.7732    2566.0711 
  715000    795.51814   -893.94264            0   -880.78055   -4017.4726    13.440161    13.567181    13.463008    2.6345047    1138.6325    2564.2375 
  716000    713.91893   -893.79996            0   -881.98795   -7201.3915    13.440161    13.567181    13.463008    2.3146075     1140.471     2562.357 
  717000    858.47758   -893.02493            0   -878.82116   -2213.8508    13.440161    13.567181    13.463008    2.1201474    1142.3396    2560.5441 
  718000    817.80377   -894.58076            0   -881.04995   -5914.1262    13.440161    13.567181    13.463008    2.1377156    1144.1814     2558.671 
  719000    747.86671   -892.50113            0   -880.12745   -1013.1981    13.440161    13.567181    13.463008      2.21081    1146.0216    2556.7947 
  720000     715.5867   -890.60475            0   -878.76515   -684.15714    13.440161    13.567181    13.463008    2.1173299    1147.8612    2554.9168 
  721000    692.60148    -892.9169            0    -881.4576   -5391.1669    13.440161    13.567181    13.463008    2.3360555    1149.7041    2553.0467 
  722000    873.71819   -893.03449            0   -878.57856   -5038.2544    13.440161    13.567181    13.463008    2.4013373    1151.5371    2551.1544 
  723000    798.99188   -892.15995            0    -878.9404   -4368.9939    13.440161    13.567181    13.463008    2.0803173    1153.3744    2549.2722 
  724000    823.55983   -894.26886            0   -880.64282   -6088.8461    13.440161    13.567181    13.463008    2.4608849    1155.2269    2547.4234 
  725000    813.39985   -891.40417            0   -877.94622   -1972.2928    13.440161    13.567181    13.463008    2.3074223    1157.0855     2545.588 
  726000    861.57638   -893.56715            0   -879.31211    -4318.105    13.440161    13.567181    13.463008    2.2152097     1158.931    2543.7239 
  727000    764.86476   -893.40383            0   -880.74891   -4784.4221    13.440161    13.567181    13.463008    2.1610657    1160.7753    2541.8572 
  728000    787.67287   -891.68058            0   -878.64829    1186.4149    13.440161    13.567181    13.463008    2.8768546    1162.6583    2540.0752 
  729000    796.42196   -892.23059            0   -879.05355   -895.38355    13.440161    13.567181    13.463008    2.3120057    1164.4885    2538.1776 
  730000     756.8864   -893.35614            0   -880.83322   -4462.8996    13.440161    13.567181    13.463008    2.7570898    1166.3859    2536.4264 
  731000    834.70951   -892.61898            0   -878.80846   -3928.3724    13.440161    13.567181    13.463008     2.413967     1168.232    2534.5636 
  732000    919.71502   -894.16658            0   -878.94962   -2139.6122    13.440161    13.567181    13.463008    3.3348944     1170.066    2532.6744 
  733000      796.591    -894.5292            0   -881.34937   -3422.9932    13.440161    13.567181    13.463008    3.2511759    1171.9869    2530.9734 
  734000    849.78114   -892.67357            0   -878.61369   -576.89024    13.440161    13.567181    13.463008     2.400818    1173.8441    2529.1341 
  735000    793.58373   -893.93103            0   -880.80095   -2528.6835    13.440161    13.567181    13.463008    3.5989791    1175.6842    2527.2582 
  736000    746.83099    -893.5115            0   -881.15496   -4060.2504    13.440161    13.567181    13.463008    2.4693573     1177.538    2525.4117 
  737000    841.65068   -892.81433            0   -878.88897   -2811.4721    13.440161    13.567181    13.463008    3.6032374    1179.3822    2523.5446 
  738000    722.55506   -894.51678            0    -882.5619   -6434.2656    13.440161    13.567181    13.463008    2.5033833    1181.2406    2521.7081 
  739000    767.28123   -893.97097            0   -881.27607   -4939.8163    13.440161    13.567181    13.463008    1.8371921    1183.0743    2519.8186 
  740000    863.85945   -893.40423            0   -879.11142   -4540.0755    13.440161    13.567181    13.463008    2.9412263      1184.92    2517.9549 
  741000    764.36696   -894.97486            0   -882.32818   -5356.4772    13.440161    13.567181    13.463008    1.7560223    1186.7551    2516.0688 
  742000    801.83529   -894.46159            0   -881.19499   -6280.2457    13.440161    13.567181    13.463008    1.7203997    1188.6103    2514.2256 
  743000    772.08456    -892.5858            0   -879.81143   -1713.1754    13.440161    13.567181    13.463008    3.2680224    1190.4487    2512.3466 
  744000    770.17883   -895.00359            0   -882.26075   -5918.5155    13.440161    13.567181    13.463008    1.9348541    1192.2981    2510.4911 
  745000    781.43007   -894.64164            0   -881.71265   -5873.4979    13.440161    13.567181    13.463008    2.1978001    1194.1413    2508.6223 
  746000    844.77277   -893.95431            0   -879.97729   -4965.9402    13.440161    13.567181    13.463008    2.0485006    1195.9883    2506.7619 
  747000    877.32238   -894.50117            0   -879.98561   -6391.1983    13.440161    13.567181    13.463008    1.9567501    1197.8368    2504.9045 
  748000     807.0977   -895.22312            0   -881.86944   -5654.6381    13.440161    13.567181    13.463008    2.3371036    1199.7165    2503.1121 
  749000    842.12775   -892.86747            0   -878.93421   -2436.1586    13.440161    13.567181    13.463008    2.1784064    1201.5924    2501.3117 
  750000     846.9224   -893.82922            0   -879.81664   -7488.9374    13.440161    13.567181    13.463008    1.8139476    1203.4418     2499.456 
  751000    804.82854   -893.85743            0    -880.5413   -5161.6787    13.440161    13.567181    13.463008    1.7275046    1205.3009    2497.6204 
  752000    778.91368   -892.88288            0   -879.99552   -1916.4513    13.440161    13.567181    13.463008     2.225673    1207.1333    2495.7296 
  753000    880.42446   -893.27927            0   -878.71238   -4790.1383    13.440161    13.567181    13.463008    2.5823263    1208.9884    2493.8858 
  754000    776.75172   -894.43248            0   -881.58089   -8003.4817    13.440161    13.567181    13.463008    1.8818363    1210.8272    2492.0083 
  755000    822.82966   -893.32421            0   -879.71025   -5641.1736    13.440161    13.567181    13.463008    2.4563646     1212.681    2490.1618 
  756000    879.78968   -893.28235            0   -878.72597   -2154.5299    13.440161    13.567181    13.463008    3.1334048    1214.5139    2488.2724 
  757000    754.84613   -893.48329            0   -880.99414    -600.9777    13.440161    13.567181    13.463008    3.0350866     1216.367    2486.4245 
  758000       885.42   -894.12704            0    -879.4775   -4116.6659    13.440161    13.567181    13.463008    2.7095132     1218.206    2484.5478 
  759000    841.39932   -892.82075            0   -878.89955   -2069.5006    13.440161    13.567181    13.463008    2.5191081    1220.0619    2482.7057 
  760000    757.11822   -893.75774            0     -881.231   -6682.2641    13.440161    13.567181    13.463008    1.9126803       1221.9    2480.8273 
  761000     789.8303    -892.5788            0   -879.51082   -3783.9268    13.440161    13.567181    13.463008    2.1864325    1223.7536    2478.9804 
  762000    948.40028   -891.44495            0   -875.75339   -824.35745    13.440161    13.567181    13.463008    2.6552018    1225.5864    2477.0915 
  763000    812.30316   -893.57362            0   -880.13382   -5258.4946    13.440161    13.567181    13.463008    2.3108241    1227.4228      2475.21 
  764000    729.35217   -893.21174            0   -881.14439   -3444.9486    13.440161    13.567181    13.463008    2.5661036      1229.26    2473.3303 
  765000    854.92516   -892.85687            0   -878.71188   -2155.8977    13.440161    13.567181    13.463008    2.1081517    1231.1836    2471.6242 
  766000     895.9866    -895.6967            0   -880.87234   -6399.2974    13.440161    13.567181    13.463008    3.2771685    1233.0201    2469.7429 
  767000    752.77583   -893.42871            0    -880.9738   -6294.3712    13.440161    13.567181    13.463008    2.2737357    1234.9125    2467.9736 
  768000     901.8185    -893.7613            0   -878.84044   -3668.9344    13.440161    13.567181    13.463008    1.8471512    1236.7481    2466.0905 
  769000    702.25046   -894.25256            0   -882.63361   -7201.0164    13.440161    13.567181    13.463008    2.4016152    1238.5806    2464.2014 
  770000    751.92291   -892.67478            0   -880.23399   -557.57861    13.440161    13.567181    13.463008    2.2456652    1240.4391    2462.3642 
  771000    816.67054   -893.07703            0   -879.56497   -4712.0423    13.440161    13.567181    13.463008    3.2741973    1242.2906     2460.513 
  772000    722.71742   -895.19318            0   -883.23561   -7965.5825    13.440161    13.567181    13.463008    1.7756161    1244.1559    2458.6891 
  773000    778.13775   -893.79013            0   -880.91561   -4752.3647    13.440161    13.567181    13.463008    2.6268247     1246.005     2456.833 
  774000    845.47682   -893.57521            0   -879.58654   -4024.1192    13.440161    13.567181    13.463008    1.6289148      1247.84    2454.9493 
  775000    726.57723   -893.08445            0   -881.06302   -6992.5707    13.440161    13.567181    13.463008    1.8808023     1249.673    2453.0618 
  776000    741.76768   -893.84483            0   -881.57207   -5024.6534    13.440161    13.567181    13.463008    2.4149325    1251.5697    2451.2992 
  777000    780.99579   -892.14076            0   -879.21896   -1389.1895    13.440161    13.567181    13.463008    2.7866279    1253.4141    2449.4341 
  778000    754.62582   -893.37553            0   -880.89002   -3376.4171    13.440161    13.567181    13.463008    2.2597571    1255.2472    2447.5468 
  779000    698.55718   -894.70991            0   -883.15207   -8362.6744    13.440161    13.567181    13.463008      1.92452     1257.079    2445.6573 
  780000     777.2686   -892.33688            0   -879.47674   -3581.8859    13.440161    13.567181    13.463008     2.414202    1258.9913    2443.9244 
  781000    770.17723   -892.92428            0   -880.18147   -3908.0129    13.440161    13.567181    13.463008    1.8713078    1260.8248    2442.0381 
  782000    783.71351   -895.27104            0   -882.30427   -5506.9316    13.440161    13.567181    13.463008    2.2342246    1262.6585    2440.1523 
  783000    819.00478   -892.58346            0   -879.03278   -6425.8128    13.440161    13.567181    13.463008    2.2134598     1264.489    2438.2607 
  784000    769.42968   -892.69625            0    -879.9658   -4110.6708    13.440161    13.567181    13.463008    2.0286034     1266.325    2436.3797 
  785000    761.55747   -894.32747            0   -881.72727   -1443.6546    13.440161    13.567181    13.463008    2.9123807    1268.1615    2434.4999 
  786000    789.79044   -891.03329            0   -877.96597   -831.88618    13.440161    13.567181    13.463008    2.0751825    1270.0285    2432.6785 
  787000    768.67557   -893.84736            0    -881.1294   -2929.8056    13.440161    13.567181    13.463008    1.8658731    1271.8593    2430.7878 
  788000     828.7789   -894.00632            0   -880.29393   -3536.8313    13.440161    13.567181    13.463008    1.6690497    1273.7419    2428.9962 
  789000       810.74    -891.2863            0   -877.87236   -5697.9364    13.440161    13.567181    13.463008     1.953159    1275.5759    2427.1118 
  790000    809.10574   -893.86106            0   -880.47416   -4159.2187    13.440161    13.567181    13.463008    1.8016159    1277.4052    2425.2186 
  791000    786.05934    -894.1198            0   -881.11421   -749.85203    13.440161    13.567181    13.463008    2.1402353    1279.2356    2423.3276 
  792000    905.54509   -892.93313            0   -877.95062   -2899.0379    13.440161    13.567181    13.463008    2.2596014    1281.0985    2421.4983 
  793000    810.22002   -894.47964            0   -881.07431   -4088.9206    13.440161    13.567181    13.463008    2.0415121    1282.9311    2419.6117 
  794000    773.08062   -893.42371            0   -880.63286   -4324.6697    13.440161    13.567181    13.463008    2.3870107    1284.7637    2417.7254 
  795000    958.13717   -892.85209            0   -876.99943    225.27889    13.440161    13.567181    13.463008    2.2574481    1286.5926    2415.8322 
  796000    803.71991   -893.79574            0   -880.49795   -5349.1604    13.440161    13.567181    13.463008    1.9055297    1288.4295     2413.954 
  797000     768.5081   -893.59749            0    -880.8823   -1428.3641    13.440161    13.567181    13.463008     2.049859     1290.323     2412.182 
  798000    836.44181   -892.87149            0   -879.03231   -3555.7734    13.440161    13.567181    13.463008    1.9760193     1292.167    2410.3173 
  799000    760.61881   -892.69478            0   -880.11012   -2880.8189    13.440161    13.567181    13.463008      2.02568    1294.0475    2408.5204 
  800000    732.86091    -893.6991            0    -881.5737   -6516.1936    13.440161    13.567181    13.463008    2.1255005    1295.8961    2406.6642 
  801000    865.46268   -893.24731            0   -878.92797   -3847.1428    13.440161    13.567181    13.463008    2.0431368    1297.7276    2404.7762 
  802000    707.76062   -893.82194            0   -882.11182   -5667.1834    13.440161    13.567181    13.463008    2.4752021    1299.5613    2402.8925 
  803000    691.95614   -892.99578            0   -881.54715    -7524.912    13.440161    13.567181    13.463008    1.7090186    1301.3979    2401.0144 
  804000    860.91451   -893.41918            0   -879.17509   -1957.0777    13.440161    13.567181    13.463008    1.9897896    1303.2354     2399.138 
  805000    778.59625   -894.72736            0   -881.84525   -6128.9895    13.440161    13.567181    13.463008     1.814221    1305.1098    2397.3294 
  806000    762.17259   -894.15598            0   -881.54561   -6560.0426    13.440161    13.567181    13.463008    2.8490541    1306.9382    2395.4364 
  807000    813.20627   -893.72459            0   -880.26985   -6767.5854    13.440161    13.567181    13.463008    2.3118688    1308.8707    2393.7338 
  808000    778.76409   -893.77932            0   -880.89443   -1072.8792    13.440161    13.567181    13.463008    2.7305501    1310.7009    2391.8441 
  809000     756.0986   -895.41864            0   -882.90876   -6174.4185    13.440161    13.567181    13.463008    1.9616505    1312.5308    2389.9538 
  810000     775.5993   -892.45148            0   -879.61896   -4687.9548    13.440161    13.567181    13.463008    2.6982651    1314.3628    2388.0676 
  811000    851.98216   -895.02928            0   -880.93298   -4869.2324    13.440161    13.567181    13.463008    2.3110309    1316.2821    2386.3399 
  812000    662.76386   -895.01853            0    -884.0529   -7271.4869    13.440161    13.567181    13.463008    2.3939029    1318.1138    2384.4531 
  813000    866.31573   -894.87681            0   -880.54336   -3550.5937    13.440161    13.567181    13.463008    2.4507862    1320.0232    2382.7067 
  814000    797.32716   -893.13548            0   -879.94346   -4068.5338    13.440161    13.567181    13.463008    2.0063543    1321.8549      2380.82 
  815000    756.04392   -894.96545            0   -882.45648   -5055.8549    13.440161    13.567181    13.463008    1.9367701     1323.686    2378.9321 
  816000    878.41696   -893.78294            0   -879.24927   -5215.1422    13.440161    13.567181    13.463008    2.4317738    1325.5295    2377.0669 
  817000    836.47656   -894.34533            0   -880.50558   -3844.0995    13.440161    13.567181    13.463008    2.3996418    1327.3647    2375.1868 
  818000    772.62884   -894.59576            0   -881.81238   -6638.1489    13.440161    13.567181    13.463008    1.8998373    1329.1963    2373.3004 
  819000    847.07674   -892.11414            0     -878.099   -2143.8845    13.440161    13.567181    13.463008    2.2274819     1331.028    2371.4142 
  820000    774.33035   -894.03939            0   -881.22786   -2256.6358    13.440161    13.567181    13.463008      2.54397    1332.8774    2369.5598 
  821000    776.74812   -893.37569            0   -880.52416   -5312.8758    13.440161    13.567181    13.463008    3.1170831    1334.7092    2367.6741 
  822000    876.37172   -892.48012            0   -877.98029   -955.94798    13.440161    13.567181    13.463008     2.322484    1336.5991    2365.8915 
  823000    826.05949   -894.19631            0   -880.52891   -5911.9197    13.440161    13.567181    13.463008    2.2651574    1338.4292    2364.0029 
  824000    738.67817   -893.22515            0    -881.0035   -4876.0836    13.440161    13.567181    13.463008    2.6658455    1340.2604    2362.1163 
  825000    802.06332   -891.02828            0    -877.7579   -6006.3683    13.440161    13.567181    13.463008    2.5560985    1342.0896    2360.2266 
  826000    715.54733   -892.74021            0   -880.90127   -6828.9738    13.440161    13.567181    13.463008    2.1463288    1343.9606    2358.4102 
  827000    798.36044   -893.63627            0   -880.42716    -5423.416    13.440161    13.567181    13.463008    2.5101865    1345.7923    2356.5249 
  828000     953.5474   -892.80951            0   -877.03279    1402.8456    13.440161    13.567181    13.463008    2.0669855    1347.6251    2354.6416 
  829000    792.25266   -893.79562            0   -880.68756   -5727.7828    13.440161    13.567181    13.463008    2.1947576    1349.4552    2352.7539 
  830000    824.59721   -894.45026            0   -880.80706   -4221.0135    13.440161    13.567181    13.463008    2.2221854    1351.3314    2350.9464 
  831000    818.19017    -892.1333            0    -878.5961    -2687.309    13.440161    13.567181    13.463008    2.1659059    1353.1813    2349.0931 
  832000    753.33294   -893.41023            0   -880.94612   -3585.6979    13.440161    13.567181    13.463008    2.3460514    1355.1194    2347.3926 
  833000     801.1837   -894.39575            0   -881.13993   -4756.0036    13.440161    13.567181    13.463008    1.8398664    1356.9526    2345.5101 
  834000    785.51161   -891.58177            0   -878.58525   -1623.8994    13.440161    13.567181    13.463008    2.4302198    1358.7855    2343.6273 
  835000    744.23957     -894.291            0   -881.97733   -4908.3397    13.440161    13.567181    13.463008    2.4182486    1360.6238    2341.7538 
  836000    736.06489   -892.67067            0   -880.49225    -2503.866    13.440161    13.567181    13.463008    2.9489116     1362.537    2340.0092 
  837000    840.53294   -893.41489            0   -879.50802   -2972.5759    13.440161    13.567181    13.463008    2.1829891     1364.369    2338.1249 
  838000    806.98945   -894.44887            0   -881.09699   -5080.8876    13.440161    13.567181    13.463008    2.1864469    1366.2109    2336.2577 
  839000    768.64614   -893.10803            0   -880.39055   -4954.2396    13.440161    13.567181    13.463008    3.1629323    1368.0484     2334.383 
  840000    873.82821   -893.77618            0   -879.31843   -6431.4704    13.440161    13.567181    13.463008     3.084853     1369.883    2332.5034 
  841000     761.9656   -894.37639            0   -881.76944   -4553.6092    13.440161    13.567181    13.463008    2.4209233     1371.745    2330.6706 
  842000    847.99227   -894.23971            0   -880.20943    -8241.734    13.440161    13.567181    13.463008      2.11962    1373.6047    2328.8338 
  843000    773.48951   -892.24521            0   -879.44759    -1943.868    13.440161    13.567181    13.463008     3.025087    1375.5279    2327.1045 
  844000    748.26574   -893.91423            0   -881.53395   -7352.8177    13.440161    13.567181    13.463008    2.8968939    1377.4484      2325.37 
  845000     817.9295   -891.55686            0   -878.02397   -3731.4082    13.440161    13.567181    13.463008    2.3514837    1379.2904    2323.5027 
  846000    808.50481   -893.22692            0   -879.84996   -7017.8047    13.440161    13.567181    13.463008     2.196874    1381.1231    2321.6198 
  847000    801.06036   -894.52096            0   -881.26718   -5245.3257    13.440161    13.567181    13.463008    2.4381393    1383.0045    2319.8187 
  848000    804.14211   -891.32375            0   -878.01898   -544.48423    13.440161    13.567181    13.463008    2.3770445    1384.8374    2317.9365 
  849000      901.062   -894.97591            0   -880.06757   -6003.0914    13.440161    13.567181    13.463008    1.6462858    1386.7443    2316.1778 
  850000    791.25129   -893.74085            0   -880.64936   -3217.0199    13.440161    13.567181    13.463008    3.5387342    1388.5773    2314.2955 
  851000    785.18663   -892.89797            0   -879.90683   -6140.8805    13.440161    13.567181    13.463008    2.4265142    1390.4099    2312.4127 
  852000    853.94119    -893.5822            0   -879.45349   -5466.3196    13.440161    13.567181    13.463008    2.3671463    1392.2437     2310.532 
  853000    787.50821   -895.21979            0   -882.19023   -5357.8248    13.440161    13.567181    13.463008    2.6110325    1394.1398    2308.7547 
  854000    867.00168   -893.15263            0   -878.80783   -1285.7119    13.440161    13.567181    13.463008    2.5099189    1395.9724    2306.8721 
  855000    776.79256   -892.92951            0   -880.07725   -6869.2192    13.440161    13.567181    13.463008    2.2833756    1397.8064     2304.992 
  856000    767.05054   -894.30311            0   -881.61203    -5776.805    13.440161    13.567181    13.463008    1.9913766    1399.6426    2303.1157 
  857000    876.08916   -893.22446            0    -878.7293    -2406.614    13.440161    13.567181    13.463008    2.3230506    1401.4747    2301.2326 
  858000    708.11518   -892.26904            0   -880.55307    -4544.274    13.440161    13.567181    13.463008    2.8497812    1403.3066    2299.3493 
  859000    770.22456   -893.92959            0     -881.186   -6367.1766    13.440161    13.567181    13.463008    3.0878043    1405.1605    2297.5022 
  860000    856.88503   -894.03477            0   -879.85735   -3432.0352    13.440161    13.567181    13.463008    1.9819943    1407.0563    2295.7234 
  861000    858.96302   -894.31001            0   -880.09821    -5382.111    13.440161    13.567181    13.463008     2.243286    1408.9318    2293.9112 
  862000    811.07798   -894.00669            0   -880.58717   -3856.5592    13.440161    13.567181    13.463008    2.3227578    1410.7746    2292.0459 
  863000    697.36412   -894.59069            0   -883.05259   -5736.7275    13.440161    13.567181    13.463008    2.7952639    1412.6072    2290.1639 
  864000    844.48074   -894.30133            0   -880.32914   -6108.2435    13.440161    13.567181    13.463008    2.0402593    1414.4628    2288.3194 
  865000    859.93583   -894.25316            0   -880.02526    -2654.862    13.440161    13.567181    13.463008    1.9621815    1416.3086    2286.4589 
  866000    691.42498   -894.79678            0   -883.35694   -7373.5976    13.440161    13.567181    13.463008    2.3263241    1418.1504    2284.5921 
  867000    765.33686   -894.00662            0    -881.3439   -7233.5293    13.440161    13.567181    13.463008    1.6864966    1419.9825    2282.7099 
  868000    790.92382   -892.69825            0   -879.61218   -3459.8469    13.440161    13.567181    13.463008    2.2048274    1421.8609    2280.9019 
  869000    750.90157   -892.00253            0   -879.57864   -741.56218    13.440161    13.567181    13.463008    2.3807987    1423.6918    2279.0177 
  870000    740.81864   -894.39553            0   -882.13847   -4428.3066    13.440161    13.567181    13.463008    2.0858306    1425.6033    2277.2624 
  871000    807.96253   -892.69257            0   -879.32459   -3580.4076    13.440161    13.567181    13.463008    2.4103296    1427.4357    2275.3807 
  872000    802.38395     -893.462            0   -880.18632   -1101.0192    13.440161    13.567181    13.463008    2.0195891    1429.2688    2273.5001 
  873000    761.12368   -894.79054            0   -882.19752   -6100.4382    13.440161    13.567181    13.463008    2.3316946    1431.1132    2271.6377 
  874000    760.98077   -894.86889            0   -882.27824    -7561.293    13.440161    13.567181    13.463008    1.9749826    1432.9662    2269.7889 
  875000    812.19714   -892.96864            0    -879.5306    -6073.966    13.440161    13.567181    13.463008    2.1481114    1434.8386    2267.9707 
  876000     805.0562   -894.00151            0   -880.68161   -6755.3773    13.440161    13.567181    13.463008    1.5611674    1436.6911     2266.121 
  877000    753.31425   -894.69181            0     -882.228   -7071.0019    13.440161    13.567181    13.463008    2.3122993    1438.5277    2264.2463 
  878000    859.92985    -893.5152            0    -879.2874    -4742.236    13.440161    13.567181    13.463008    2.7499179    1440.3715    2262.3831 
  879000    802.01173   -894.05132            0   -880.78179   -1909.1059    13.440161    13.567181    13.463008    2.7084292     1442.205    2260.5036 
  880000     711.7622   -893.72339            0   -881.94707   -4417.0882    13.440161    13.567181    13.463008    2.0538569    1444.0664     2258.668 
  881000    804.87138   -892.02835            0   -878.71152    634.89263    13.440161    13.567181    13.463008    2.3547559    1445.9042    2256.7954 
  882000    794.45599    -894.1892            0   -881.04469   -3647.2017    13.440161    13.567181    13.463008    2.4136328    1447.8178     2255.041 
  883000     781.1731   -894.33226            0   -881.40751    -5306.204    13.440161    13.567181    13.463008    3.9239781    1449.6511    2253.1614 
  884000    869.29836   -893.98006            0   -879.59726   -1882.1008    13.440161    13.567181    13.463008    2.1405376    1451.4811    2251.2769 
  885000    876.67698   -893.82589            0   -879.32101   -3676.9138    13.440161    13.567181    13.463008     2.751313    1453.3497    2249.4521 
  886000    751.24693   -894.44349            0   -882.01388   -7617.6913    13.440161    13.567181    13.463008    2.0259012    1455.1994     2247.598 
  887000    817.76208   -892.50701            0   -878.97689    -5939.562    13.440161    13.567181    13.463008    2.4919336    1457.0332    2245.7195 
  888000    788.23663   -892.83817            0   -879.79656   -5449.9573    13.440161    13.567181    13.463008    2.0418622    1458.8989    2243.8902 
  889000    820.52338   -894.58961            0   -881.01381   -4195.9697    13.440161    13.567181    13.463008     1.639029    1460.8104     2242.131 
  890000    849.40545    -891.6952            0   -877.64153   -1769.6983    13.440161    13.567181    13.463008    1.9285893    1462.6453    2240.2542 
  891000    767.61151   -893.19261            0   -880.49225   -4037.4869    13.440161    13.567181    13.463008    2.4975272    1464.5508    2238.4854 
  892000    777.52608   -893.73464            0   -880.87024   -3510.1257    13.440161    13.567181    13.463008    2.0836961    1466.3827    2236.6039 
  893000    871.29746   -891.44009            0   -877.02421   -796.92831    13.440161    13.567181    13.463008    2.9052176    1468.2171    2234.7263 
  894000    839.27145   -893.52238            0   -879.63639   -2971.9171    13.440161    13.567181    13.463008    2.4128404    1470.0506    2232.8477 
  895000    867.32577    -895.2008            0   -880.85064   -3401.0188    13.440161    13.567181    13.463008      2.23958    1471.9748    2231.1065 
  896000    853.90668   -893.75678            0   -879.62864   -4296.6372    13.440161    13.567181    13.463008    2.3669394    1473.8074    2229.2263 
  897000    834.79034   -892.96125            0   -879.14939   -3318.4317    13.440161    13.567181    13.463008    2.8513682     1475.643    2227.3507 
  898000    761.56961   -894.11059            0    -881.5102   -4475.5535    13.440161    13.567181    13.463008    2.9921075    1477.4829    2225.4818 
  899000    847.76372   -893.78974            0   -879.76324   -3937.7314    13.440161    13.567181    13.463008    2.3597361    1479.4319    2223.7769 
  900000    973.35572   -891.62281            0   -875.51835   -3687.5166    13.440161    13.567181    13.463008    3.5789688    1481.2712    2221.9067 
  901000    867.12497   -893.59203            0   -879.24519   -3145.1271    13.440161    13.567181    13.463008    3.1121676    1483.1417    2220.0835 
  902000    739.52065   -893.55994            0   -881.32435   -4744.9528    13.440161    13.567181    13.463008     2.330347    1484.9779    2218.2088 
  903000    822.81383   -893.38264            0   -879.76894   -739.18007    13.440161    13.567181    13.463008    2.2253679    1486.8101    2216.3284 
  904000    816.56209   -892.54774            0   -879.03748   -4525.2582    13.440161    13.567181    13.463008     2.280566    1488.6769    2214.4995 
  905000    736.46755   -893.15915            0   -880.97407   -3584.2183    13.440161    13.567181    13.463008     2.693495    1490.5474    2212.6759 
  906000    763.85978   -892.35668            0   -879.71839   -3843.7322    13.440161    13.567181    13.463008    2.3387575    1492.4364    2210.8797 
  907000    912.01867   -891.70616            0   -876.61654    -2453.153    13.440161    13.567181    13.463008    2.3563571    1494.2729    2209.0057 
  908000     730.7737   -892.56115            0   -880.47028   -3757.7735    13.440161    13.567181    13.463008    2.5593872    1496.1746    2207.2278 
  909000    836.06489   -894.54361            0   -880.71066    -6121.262    13.440161    13.567181    13.463008    2.1675519     1498.008    2205.3492 
  910000     983.9448    -894.1098            0   -877.83014   -3158.5431    13.440161    13.567181    13.463008    2.3929166    1499.8959    2203.5508 
  911000    812.84085    -894.8133            0   -881.36461   -7215.9174    13.440161    13.567181    13.463008    2.4259218    1501.7324    2201.6767 
  912000    814.53781   -893.92655            0   -880.44978   -3115.2138    13.440161    13.567181    13.463008    1.9882916    1503.5801    2199.8191 
  913000    847.98667   -892.24925            0   -878.21905   -519.36509    13.440161    13.567181    13.463008    2.2023663    1505.4166    2197.9453 
  914000    759.37101   -894.52282            0    -881.9588   -3394.3842    13.440161    13.567181    13.463008    2.0358464    1507.3007    2196.1408 
  915000    837.62993   -893.72622            0   -879.86738    19.176342    13.440161    13.567181    13.463008    2.9640509    1509.1458    2194.2795 
  916000    866.94364    -893.7053            0   -879.36146   -3618.0922    13.440161    13.567181    13.463008    2.7127005     1510.982    2192.4053 
  917000    833.78982    -894.1913            0   -880.39599   -5507.4962    13.440161    13.567181    13.463008    2.0075986    1512.8683    2190.6037 
  918000    794.63744   -893.67883            0   -880.53131   -1757.5768    13.440161    13.567181    13.463008    2.0301957    1514.7489    2188.7936 
  919000    827.87964   -892.93178            0   -879.23426   -3135.1521    13.440161    13.567181    13.463008    2.2976927    1516.6074    2186.9516 
  920000    858.21179   -893.67525            0   -879.47588   -3555.0733    13.440161    13.567181    13.463008    3.1551957    1518.4699    2185.1152 
  921000    747.17461   -894.17188            0   -881.80965   -6173.9168    13.440161    13.567181    13.463008    2.3827786    1520.3769    2183.3427 
  922000     823.4013   -893.66295            0   -880.03953   -4632.2581    13.440161    13.567181    13.463008    1.9482397    1522.2539    2181.5268 
  923000    762.73272   -892.83664            0     -880.217   -5676.1115    13.440161    13.567181    13.463008    2.0622302    1524.1242    2179.7013 
  924000    709.11322   -893.20638            0   -881.47389   -5170.5797    13.440161    13.567181    13.463008     2.191302    1526.0036    2177.8887 
  925000    743.27401   -894.91923            0   -882.62154   -8124.8837    13.440161    13.567181    13.463008     1.857922    1527.8995    2176.0992 
  926000    776.92124   -892.42501            0   -879.57062   -2579.6209    13.440161    13.567181    13.463008    1.7541313    1529.7907     2174.303 
  927000    777.26447   -894.12918            0   -881.26911   -2943.7864    13.440161    13.567181    13.463008    3.0132285    1531.6524    2172.4646 
  928000    704.94637   -894.14406            0   -882.48051   -4439.1583    13.440161    13.567181    13.463008    2.2752516    1533.5001    2170.6064 
  929000     845.3097   -893.37226            0   -879.38636   -4700.3162    13.440161    13.567181    13.463008    2.2121477     1535.391    2168.8092 
  930000    783.71191   -894.49529            0   -881.52855    -4971.077    13.440161    13.567181    13.463008    1.8441667    1537.2346    2166.9452 
  931000    824.02833   -893.23131            0   -879.59751   -4868.0684    13.440161    13.567181    13.463008    2.0706717    1539.0741    2165.0753 
  932000    805.73128   -892.68008            0   -879.34901   -718.76894    13.440161    13.567181    13.463008    2.1480329    1540.9788    2163.2972 
  933000    788.20859   -894.15594            0   -881.11479   -4192.1759    13.440161    13.567181    13.463008    2.3180723    1542.8725    2161.5032 
  934000    800.02374   -893.30044            0   -880.06381   -2595.9068    13.440161    13.567181    13.463008    1.7158259    1544.7192    2159.6433 
  935000    870.86964   -891.40171            0   -876.99291    524.58975    13.440161    13.567181    13.463008    2.5564047    1546.5933    2157.8218 
  936000    851.84211   -893.99284            0   -879.89886   -3140.5558    13.440161    13.567181    13.463008    2.3243764    1548.4412    2155.9636 
  937000    744.95677   -893.30126            0   -880.97573   -3925.1517    13.440161    13.567181    13.463008    3.0301991    1550.3071    2154.1304 
  938000    891.67528   -893.37447            0   -878.62143   -3059.3287    13.440161    13.567181    13.463008    2.8703467    1552.1461    2152.2599 
  939000    785.36317   -892.96504            0   -879.97097   -5225.3153    13.440161    13.567181    13.463008     2.636536    1554.0107    2150.4248 
  940000    757.62204   -893.52927            0   -880.99419   -4073.4612    13.440161    13.567181    13.463008    2.1615582    1555.8795    2148.5955 
  941000    820.14258   -892.15631            0   -878.58681   -3082.3034    13.440161    13.567181    13.463008    1.9225052    1557.7199     2146.727 
  942000    852.52355   -894.45907            0   -880.35381   -4177.6971    13.440161    13.567181    13.463008    1.8147772    1559.6085    2144.9248 
  943000    840.58286   -895.30587            0   -881.39817    -6442.948    13.440161    13.567181    13.463008    1.7128847     1561.569    2143.2211 
  944000    878.83782   -892.98906            0   -878.44843    1645.1496    13.440161    13.567181    13.463008    2.8523261    1563.4274    2141.3768 
  945000    889.39272   -894.50098            0   -879.78571   -4610.2355    13.440161    13.567181    13.463008     1.939121    1565.3315    2139.5952 
  946000    783.49967   -893.81256            0   -880.84933   -4138.0805    13.440161    13.567181    13.463008    2.0254567    1567.1823    2137.7404 
  947000    827.96652   -894.22201            0   -880.52306   -3365.2309    13.440161    13.567181    13.463008    1.7785781    1569.0722    2135.9389 
  948000    891.00988   -893.62352            0    -878.8815   -4776.5206    13.440161    13.567181    13.463008    2.1044867    1570.9634    2134.1389 
  949000    677.29734   -892.92061            0   -881.71452   -5746.7835    13.440161    13.567181    13.463008    2.0124024    1572.8096    2132.2778 
  950000      709.673   -892.56355            0    -880.8218   -1136.8313    13.440161    13.567181    13.463008    2.4001834    1574.6946    2130.4692 
  951000    784.56479   -892.75581            0   -879.77495   -2679.3698    13.440161    13.567181    13.463008    2.6805459    1576.5278    2128.5904 
  952000    785.21235   -894.03511            0   -881.04353   -4224.5964    13.440161    13.567181    13.463008    2.0252619     1578.381    2126.7387 
  953000    803.13973   -894.69046            0   -881.40228   -4575.8618    13.440161    13.567181    13.463008    1.8958046     1580.218    2124.8652 
  954000    849.88709   -892.61144            0    -878.5498   -4675.2004    13.440161    13.567181    13.463008    1.7009248    1582.0649    2123.0052 
  955000    815.09272   -895.01843            0   -881.53248   -4646.5111    13.440161    13.567181    13.463008    2.6257862    1583.9073     2121.139 
  956000     823.0385   -894.65175            0   -881.03433   -6444.7539    13.440161    13.567181    13.463008    2.4321001    1585.7976     2119.337 
  957000    833.12188   -893.08716            0   -879.30291    543.60186    13.440161    13.567181    13.463008    2.9378292     1587.644    2117.4762 
  958000     897.0631   -893.61877            0    -878.7766   -4721.0488    13.440161    13.567181    13.463008    2.0170976    1589.5086    2115.6396 
  959000    735.06642   -893.99087            0   -881.82897   -3316.9755    13.440161    13.567181    13.463008    2.7413891    1591.3658    2113.7933 
  960000    889.06316   -893.93686            0   -879.22704    -4814.945    13.440161    13.567181    13.463008    1.8709589     1593.201    2111.9176 
  961000    895.82884   -894.06466            0   -879.24291   -3139.8157    13.440161    13.567181    13.463008    1.7900773    1595.0635    2110.0783 
  962000     747.4113    -893.2711            0   -880.90496    -4053.758    13.440161    13.567181    13.463008    2.5418719    1596.9034    2108.2089 
  963000    841.62283   -892.70965            0   -878.78475   -3820.1924    13.440161    13.567181    13.463008    2.3191371    1598.8046    2106.4205 
  964000    761.66367   -891.85005            0   -879.24809   -1881.1086    13.440161    13.567181    13.463008    2.4039297    1600.6471    2104.5546 
  965000    762.47832   -893.75731            0   -881.14188   -6945.9194    13.440161    13.567181    13.463008    2.4729988    1602.5319    2102.7442 
  966000    820.97786   -892.29583            0   -878.71251   -1745.5316    13.440161    13.567181    13.463008    2.2474183    1604.4513    2100.9789 
  967000      848.523   -892.64696            0   -878.60789   -1662.1924    13.440161    13.567181    13.463008    2.1745655    1606.2974    2099.1175 
  968000    750.91589   -893.01703            0   -880.59291   -6969.5484    13.440161    13.567181    13.463008    1.9131069    1608.1633    2097.2821 
  969000    820.67468   -894.91794            0   -881.33963   -8086.0672    13.440161    13.567181    13.463008    1.9482613    1610.0356    2095.4548 
  970000    792.87744   -891.37859            0    -878.2602   -1681.3556    13.440161    13.567181    13.463008    2.5277839    1611.9745     2093.714 
  971000    775.49952   -893.92852            0   -881.09765   -3938.6827    13.440161    13.567181    13.463008    1.8977858     1613.904    2091.9606 
  972000    749.63613   -893.12314            0   -880.72019   -5057.5104    13.440161    13.567181    13.463008    2.5592904    1615.7598    2090.1113 
  973000    801.33135     -891.224            0   -877.96574   -1869.8138    13.440161    13.567181    13.463008    2.1942343    1617.7051    2088.3776 
  974000     825.1306   -893.26923            0   -879.61719   -4502.6843    13.440161    13.567181    13.463008    2.7092641    1619.5625    2086.5302 
  975000    817.52329   -894.68527            0   -881.15911   -4044.8499    13.440161    13.567181    13.463008    1.8701192    1621.4285    2084.6938 
  976000    826.59352   -892.68693            0    -879.0107   -3710.1986    13.440161    13.567181    13.463008    2.6540658    1623.2807    2082.8396 
  977000    807.12298   -893.14328            0   -879.78919   -3945.8472    13.440161    13.567181    13.463008    2.2148257    1625.1468    2081.0032 
  978000    773.26407   -894.18105            0   -881.38716   -8773.8822    13.440161    13.567181    13.463008    1.8911191    1627.0231    2079.1798 
  979000    821.57322    -892.4085            0   -878.81532   -1082.9947    13.440161    13.567181    13.463008    2.4428356    1628.8935    2077.3488 
  980000    796.07909   -894.76752            0   -881.59616   -5861.4821    13.440161    13.567181    13.463008    2.2310286     1630.746    2075.4949 
  981000    762.47626    -893.7934            0     -881.178   -7431.7943    13.440161    13.567181    13.463008    2.4146456    1632.6413    2073.6954 
  982000    744.13755   -891.55059            0   -879.23861   -1931.4975    13.440161    13.567181    13.463008    2.2269824    1634.5359    2071.8947 
  983000    776.46253   -893.66983            0   -880.82302   -3640.4569    13.440161    13.567181    13.463008    2.2671748    1636.4011    2070.0566 
  984000    819.74416   -894.24081            0    -880.6779   -5739.9248    13.440161    13.567181    13.463008    1.9806874    1638.3057    2068.2683 
  985000    840.69662   -893.27541            0   -879.36584   -4748.5733    13.440161    13.567181    13.463008    2.6578168    1640.1649    2066.4224 
  986000    956.47291   -892.73419            0   -876.90906   -2182.9401    13.440161    13.567181    13.463008    2.2009019    1642.0871    2064.6558 
  987000    753.85644   -893.08627            0   -880.61349   -3035.7661    13.440161    13.567181    13.463008     2.569068    1643.9662    2062.8347 
  988000    758.20052   -892.22317            0   -879.67851   -4973.6171    13.440161    13.567181    13.463008    2.3194597    1645.9218    2061.1093 
  989000    843.87493   -891.60202            0   -877.63986   -3003.1498    13.440161    13.567181    13.463008    2.1123595     1647.781    2059.2629 
  990000    791.70082    -894.4245            0   -881.32557   -4249.3373    13.440161    13.567181    13.463008    1.9818455    1649.6413    2057.4178 
  991000    798.28217   -892.19585            0   -878.98803   -2710.6845    13.440161    13.567181    13.463008    1.9202773    1651.5455    2055.6274 
  992000    769.65448   -892.87459            0   -880.14043   -5133.7461    13.440161    13.567181    13.463008    1.5131442    1653.4125    2053.7904 
  993000    688.93943   -892.75138            0   -881.35267   -2961.9957    13.440161    13.567181    13.463008    2.2135185    1655.2633    2051.9333 
  994000    845.15414   -892.94404            0   -878.96071   -4524.5679    13.440161    13.567181    13.463008    1.9984383    1657.1234    2050.0878 
  995000    816.74372   -893.75651            0   -880.24324   -3650.7124    13.440161    13.567181    13.463008    2.5592346    1658.9596    2048.2126 
  996000    749.82355   -892.79006            0   -880.38401   -4679.0439    13.440161    13.567181    13.463008    3.2033085    1660.7954    2046.3372 
  997000    910.88438   -894.44523            0   -879.37437   -1407.5329    13.440161    13.567181    13.463008    1.9905788    1662.6582     2044.495 
  998000    864.57004   -892.88352            0   -878.57895   -7510.8327    13.440161    13.567181    13.463008    2.1770513    1664.5364    2042.6716 
  999000    755.98072    -894.1267            0   -881.61877   -7169.6513    13.440161    13.567181    13.463008    2.4797845    1666.3711    2040.7949 
 1000000    817.89956   -892.73612            0   -879.20373   -4846.6906    13.440161    13.567181    13.463008    2.8341651    1668.2047    2038.9169 
 1001000    868.41769   -893.89297            0   -879.52474   -2078.2338    13.440161    13.567181    13.463008    1.6913532    1670.0951    2037.1082 
 1002000    760.75505   -894.25205            0   -881.66513   -5151.9649    13.440161    13.567181    13.463008    1.8026637    1671.9338    2035.2364 
 1003000    770.88621   -891.53564            0    -878.7811   -5074.0986    13.440161    13.567181    13.463008    2.4206337    1673.7684    2033.3598 
 1004000    801.04565   -894.52347            0   -881.26993   -5507.9396    13.440161    13.567181    13.463008    1.6485521    1675.6001    2031.4797 
 1005000    795.32494   -894.50033            0   -881.34144   -5680.1289    13.440161    13.567181    13.463008    1.8373223    1677.4541    2029.6267 
 1006000    878.89432   -894.24195            0   -879.70038   -4686.7235    13.440161    13.567181    13.463008    1.8434557    1679.2863    2027.7475 
 1007000    824.09282   -893.15691            0   -879.52205   -5329.1219    13.440161    13.567181    13.463008    2.5326683    1681.1189    2025.8688 
 1008000    815.86352    -894.4881            0   -880.98939   -3674.2492    13.440161    13.567181    13.463008    2.0744855    1682.9521    2023.9908 
 1009000    804.62574   -892.70772            0   -879.39495   -2439.2422    13.440161    13.567181    13.463008    1.7720747    1684.8385     2022.177 
 1010000    917.04798   -893.61611            0   -878.44328   -5354.4728    13.440161    13.567181    13.463008    1.9687217     1686.672    2020.2995 
 1011000    814.09802   -894.86891            0   -881.39941    -3522.882    13.440161    13.567181    13.463008     1.921588    1688.5439     2018.468 
 1012000    908.05473   -893.86816            0   -878.84412   -3998.7401    13.440161    13.567181    13.463008    1.9470593    1690.3772    2016.5904 
 1013000    806.08767   -894.42789            0   -881.09093    -4312.076    13.440161    13.567181    13.463008    2.5447138    1692.2119    2014.7145 
 1014000    806.85352   -894.84312            0   -881.49348   -5234.0375    13.440161    13.567181    13.463008    2.1809856    1694.0415    2012.8327 
 1015000    812.70775   -892.97098            0   -879.52448   -3505.2879    13.440161    13.567181    13.463008    1.8470526    1695.8766    2010.9575 
 1016000    796.61503   -894.16931            0   -880.98907   -7220.9899    13.440161    13.567181    13.463008    1.9940357    1697.7114     2009.082 
 1017000    639.28888   -894.10589            0   -883.52866    -5304.703    13.440161    13.567181    13.463008    2.2644128    1699.6603    2007.3414 
 1018000    737.44667   -892.35821            0   -880.15694   -2440.1174    13.440161    13.567181    13.463008    3.0190088    1701.4912    2005.4613 
 1019000    849.93322   -893.70261            0   -879.64021    -6681.549    13.440161    13.567181    13.463008    3.1048716    1703.3218    2003.5809 
 1020000    730.07337   -894.74543            0   -882.66615   -5743.5183    13.440161    13.567181    13.463008     2.430859    1705.1579    2001.7071 
 1021000    858.89598   -894.22986            0   -880.01917   -5403.0744    13.440161    13.567181    13.463008    1.9971039    1706.9873    1999.8255 
 1022000    780.07795   -893.14018            0   -880.23355    -5363.748    13.440161    13.567181    13.463008    2.2793819    1708.8477    1997.9803 
 1023000    733.95581   -894.73563            0   -882.59211   -7674.2179    13.440161    13.567181    13.463008    2.0516825    1710.6802    1996.1025 
 1024000    814.40274   -893.92337            0   -880.44884   -6937.6456    13.440161    13.567181    13.463008    2.0466855    1712.5742    1994.2963 
 1025000    864.29446   -894.05266            0   -879.75265   -2905.8063    13.440161    13.567181    13.463008    2.0358426    1714.4095    1992.4219 
 1026000    746.11049   -894.73042            0    -882.3858   -5463.7044    13.440161    13.567181    13.463008    1.8931586    1716.2626     1990.568 
 1027000    759.68998    -892.0533            0     -879.484   -2008.3141    13.440161    13.567181    13.463008     1.972738    1718.0959    1988.6914 
 1028000    792.65482   -892.95661            0    -879.8419   -3159.4114    13.440161    13.567181    13.463008    2.7058275     1719.931    1986.8168 
 1029000    744.30718   -894.18853            0   -881.87375   -2599.9009    13.440161    13.567181    13.463008    2.1854929    1721.7613    1984.9369 
 1030000    808.42127   -893.44735            0   -880.07178   -6863.0439    13.440161    13.567181    13.463008    2.1945334    1723.6073     1983.075 
 1031000    707.88109   -892.02805            0   -880.31594   -3585.1646    13.440161    13.567181    13.463008    3.4373049    1725.4399     1981.198 
 1032000    705.87796    -893.1912            0   -881.51224   -2601.7872    13.440161    13.567181    13.463008    2.6098421    1727.3291    1979.3857 
 1033000    787.07073   -893.34848            0   -880.32616   -1555.5078    13.440161    13.567181    13.463008    2.7198024    1729.1608    1977.5075 
 1034000    871.45538    -893.4634            0   -879.04492   -4191.8545    13.440161    13.567181    13.463008    2.2496292    1730.9963    1975.6339 
 1035000    739.04568   -894.21256            0   -881.98483   -6670.3255    13.440161    13.567181    13.463008     1.822127    1732.8283    1973.7563 
 1036000    907.18895   -894.96768            0   -879.95797   -4568.2423    13.440161    13.567181    13.463008    1.9278375     1734.723    1971.9501 
 1037000    822.19011   -893.41895            0   -879.81557   -3041.0854    13.440161    13.567181    13.463008    2.1039259    1736.5557    1970.0733 
 1038000    704.29575   -894.10292            0   -882.45013   -3410.8062    13.440161    13.567181    13.463008    2.9126071    1738.3882    1968.1965 
 1039000     864.5121   -893.66878            0   -879.36517   -5551.9599    13.440161    13.567181    13.463008    2.2551905    1740.2311    1966.3314 
 1040000    791.47885   -893.20349            0   -880.10824   -6161.7938    13.440161    13.567181    13.463008    2.3367965    1742.0942    1964.4892 
 1041000    697.85859   -894.90916            0   -883.36288   -7889.3671    13.440161    13.567181    13.463008    2.2092175     1743.927    1962.6128 
 1042000    794.64506   -894.11005            0   -880.96241   -6211.8352    13.440161    13.567181    13.463008    1.9569756    1745.7579    1960.7345 
 1043000     789.7925   -892.53127            0   -879.46392   -2705.3281    13.440161    13.567181    13.463008    2.1678743    1747.6289    1958.9011 
 1044000    759.94522     -892.371            0   -879.79748   -4763.1693    13.440161    13.567181    13.463008     3.127055    1749.4629    1957.0263 
 1045000     730.2903   -894.07079            0   -881.98792   -4862.6621    13.440161    13.567181    13.463008    2.7388202    1751.3406    1955.2003 
 1046000    869.48069   -892.94466            0   -878.55884   -3583.4656    13.440161    13.567181    13.463008    2.3506625    1753.1856    1953.3379 
 1047000    783.20656   -893.25592            0   -880.29753   -3664.3085    13.440161    13.567181    13.463008    2.3613308    1755.0207    1951.4644 
 1048000    781.01159   -894.91469            0   -881.99262   -7692.1917    13.440161    13.567181    13.463008    2.0542559    1756.8519    1949.5867 
 1049000    866.10685   -894.00672            0   -879.67672   -6121.5445    13.440161    13.567181    13.463008     2.299296    1758.7407    1947.7729 
 1050000    854.69096   -893.87679            0   -879.73567   -4445.1621    13.440161    13.567181    13.463008    2.3994746    1760.5734     1945.897 
 1051000    724.54752   -894.05292            0   -882.06506   -4285.4954    13.440161    13.567181    13.463008     1.809411    1762.4076    1944.0227 
 1052000    799.50631   -893.74984            0   -880.52177   -5474.0489    13.440161    13.567181    13.463008    2.7349011    1764.2402    1942.1468 
 1053000    792.47552   -892.86429            0   -879.75255   -2015.2958    13.440161    13.567181    13.463008    2.4528565    1766.1156     1940.318 
 1054000    816.27585   -894.11027            0   -880.60474     -4442.27    13.440161    13.567181    13.463008    2.7035452    1767.9473    1938.4412 
 1055000    804.78074   -894.68786            0   -881.37253   -4256.4766    13.440161    13.567181    13.463008    2.0803541    1769.8469    1936.6388 
 1056000    900.41778   -893.28397            0   -878.38629   -2791.3179    13.440161    13.567181    13.463008    2.3069912    1771.6787    1934.7621 
 1057000    821.45694     -895.228            0   -881.63675   -5900.3472    13.440161    13.567181    13.463008    1.7337545    1773.5138    1932.8892 
 1058000    773.42485   -893.41627            0   -880.61972   -2636.0326    13.440161    13.567181    13.463008    1.9289999    1775.3457    1931.0127 
 1059000     862.9034   -893.09177            0   -878.81478   -4765.6179    13.440161    13.567181    13.463008    2.3561891    1777.2793    1929.2469 
 1060000     779.0645    -895.1929            0   -882.30304   -5829.9842    13.440161    13.567181    13.463008    1.8076519    1779.1114    1927.3707 
 1061000    795.26536   -893.21687            0   -880.05896   -2953.0859    13.440161    13.567181    13.463008    2.4036499    1780.9448     1925.496 
 1062000    753.51334    -892.2059            0    -879.7388   -4130.6677    13.440161    13.567181    13.463008    2.0999525    1782.8139    1923.6599 
 1063000    760.63663   -893.64105            0   -881.05609   -2601.2902    13.440161    13.567181    13.463008    2.0855391    1784.7018     1921.844 
 1064000    736.16963   -895.03119            0   -882.85105   -4857.1004    13.440161    13.567181    13.463008    2.3386847    1786.5616    1919.9977 
 1065000    834.48699   -893.57498            0   -879.76815    -5813.654    13.440161    13.567181    13.463008    2.2125822    1788.3942    1918.1223 
 1066000    833.31234    -893.6197            0    -879.8323   -1687.6371    13.440161    13.567181    13.463008    1.6044821    1790.2294    1916.2497 
 1067000    727.58194   -894.50251            0   -882.46445   -6505.9252    13.440161    13.567181    13.463008    3.4256495    1792.0621    1914.3745 
 1068000    865.13808   -893.46569            0   -879.15172    -5064.823    13.440161    13.567181    13.463008    2.1249312    1793.9397    1912.5472 
 1069000    790.79923   -893.44492            0   -880.36091   -5441.2862    13.440161    13.567181    13.463008     1.696819    1795.7762    1910.6762 
 1070000     653.3051    -893.1875            0   -882.37837   -4646.1874    13.440161    13.567181    13.463008    1.8151017    1797.6101    1908.8025 
 1071000    756.79928   -891.50334            0   -878.98187   -649.42928    13.440161    13.567181    13.463008    2.2391499    1799.4423     1906.927 
 1072000    798.49592   -892.84609            0   -879.63473   -1987.0233    13.440161    13.567181    13.463008    2.7460461    1801.2973    1905.0757 
 1073000    833.48003   -895.35939            0   -881.56921   -4200.3618    13.440161    13.567181    13.463008    1.9308364    1803.1284    1903.1992 
 1074000    822.99248   -891.39642            0   -877.77976   -4456.1784    13.440161    13.567181    13.463008    2.6950116     1804.968    1901.3318 
 1075000    808.86183   -893.54435            0   -880.16149   -2029.3126    13.440161    13.567181    13.463008    2.2951635    1806.8016    1899.4581 
 1076000     747.2612   -893.66087            0   -881.29721   -2400.6163    13.440161    13.567181    13.463008    1.9452957    1808.6486    1897.5986 
 1077000    882.08885   -892.48278            0   -877.88836   -1775.3071    13.440161    13.567181    13.463008    1.8115078    1810.4803    1895.7229 
 1078000     803.5462   -893.43764            0   -880.14273   -2865.9542    13.440161    13.567181    13.463008    2.4025115    1812.3748    1893.9131 
 1079000    729.02885   -892.44036            0   -880.37836   -2193.9295    13.440161    13.567181    13.463008    1.7942506    1814.2046    1892.0356 
 1080000     943.8914   -892.70346            0   -877.08649   -1483.1532    13.440161    13.567181    13.463008    2.3853265    1816.0385    1890.1625 
 1081000    809.14608   -892.89014            0   -879.50257   -2943.0223    13.440161    13.567181    13.463008    2.9090191    1817.8689    1888.2859 
 1082000    838.70834   -894.52748            0    -880.6508   -6391.5322    13.440161    13.567181    13.463008    2.7942011    1819.7564    1886.4684 
 1083000    904.61423   -893.69186            0   -878.72475   -2847.9598    13.440161    13.567181    13.463008    2.1409766    1821.5871    1884.5921 
 1084000     799.9195   -892.77847            0   -879.54356   -5528.0535    13.440161    13.567181    13.463008    2.6245872    1823.4187    1882.7169 
 1085000    744.89458   -893.26361            0   -880.93911   -3484.7481    13.440161    13.567181    13.463008    2.4410831    1825.2645    1880.8564 
 1086000    798.61102   -891.66691            0   -878.45365   -1782.5698    13.440161    13.567181    13.463008    2.3935274    1827.1304    1879.0164 
 1087000    869.52609   -892.31424            0   -877.92768   -2663.3283    13.440161    13.567181    13.463008    2.4085384    1828.9878    1877.1678 
 1088000    765.05336   -894.00433            0    -881.3463   -4435.0731    13.440161    13.567181    13.463008    2.2964121    1830.8372     1875.311 
 1089000    848.01036   -893.44162            0   -879.41103   -4920.3389    13.440161    13.567181    13.463008    2.1306621    1832.6686    1873.4358 
 1090000    905.24863    -894.3081            0   -879.33049    -2832.312    13.440161    13.567181    13.463008    3.2527031    1834.5023     1871.563 
 1091000    755.05261   -893.37433            0   -880.88176   -5379.5831    13.440161    13.567181    13.463008    2.9831929    1836.3965    1869.7518 
 1092000    797.76662   -892.21875            0   -879.01946   -367.49459    13.440161    13.567181    13.463008      2.55684    1838.2318    1867.8807 
 1093000    812.42972   -894.01003            0   -880.56814   -3347.4811    13.440161    13.567181    13.463008    1.9438438     1840.095    1866.0379 
 1094000    869.76406   -895.83864            0   -881.44814    -4721.078    13.440161    13.567181    13.463008    2.3202311    1841.9249    1864.1614 
 1095000    835.29498   -892.99135            0   -879.17115   -2150.2386    13.440161    13.567181    13.463008    2.1454805    1843.7582    1862.2885 
 1096000    859.25147   -894.28447            0    -880.0679    -3955.629    13.440161    13.567181    13.463008    1.8062517    1845.5887    1860.4127 
 1097000    764.70956   -895.37292            0   -882.72057   -6043.7698    13.440161    13.567181    13.463008    2.0795199    1847.4185    1858.5364 
 1098000    768.13095   -894.15089            0   -881.44193   -3325.2433    13.440161    13.567181    13.463008    2.0707039    1849.2463    1856.6581 
 1099000    793.20693   -892.85102            0   -879.72718   -6149.0401    13.440161    13.567181    13.463008      2.39833    1851.1584    1854.8645 
 1100000    720.33526   -893.00084            0   -881.08268   -4981.7674    13.440161    13.567181    13.463008    3.3303778    1852.9905    1852.9905 
 1101000    696.75502   -893.71769            0   -882.18967   -6099.5272    13.440161    13.567181    13.463008     2.263382    1854.8218    1851.1158 
 1102000    803.17171   -892.30096            0   -879.01225   -1858.9375    13.440161    13.567181    13.463008    2.1648291    1856.6526    1849.2408 
 1103000    723.61972    -893.4783            0   -881.50579   -2458.4285    13.440161    13.567181    13.463008    2.0391233    1858.5213    1847.4035 
 1104000    796.34378   -892.36566            0   -879.18991   -1947.7835    13.440161    13.567181    13.463008     2.154229    1860.3512    1845.5277 
 1105000    890.91811   -894.35599            0   -879.61548   -5275.4348    13.440161    13.567181    13.463008    2.6748805    1862.1824    1843.6533 
 1106000    804.06247    -894.6041            0   -881.30065    -2877.636    13.440161    13.567181    13.463008    1.9035929    1864.0125    1841.7777 
 1107000    935.43734   -893.02963            0   -877.55254   -1275.3182    13.440161    13.567181    13.463008    2.3825966     1865.873    1839.9323 
 1108000    835.21268   -893.52735            0   -879.70851   -4779.9731    13.440161    13.567181    13.463008    2.0818353    1867.7097    1838.0635 
 1109000    754.73935   -893.23986            0   -880.75247   -6868.2302    13.440161    13.567181    13.463008    2.8351413    1869.5401    1836.1886 
 1110000    799.19706   -891.44614            0   -878.22318   -2800.0302    13.440161    13.567181    13.463008    2.1371643    1871.3717    1834.3148 
 1111000    814.61732   -893.40526            0   -879.92717   -2476.9566    13.440161    13.567181    13.463008    2.2180959    1873.2035    1832.4414 
 1112000    784.22634   -893.75327            0   -880.77801   -3241.7274    13.440161    13.567181    13.463008    2.0340915    1875.0544    1830.5867 
 1113000    902.64008   -893.12672            0   -878.19227   -2970.9511    13.440161    13.567181    13.463008    2.0630889    1876.9166     1828.743 
 1114000     829.2103   -893.95384            0   -880.23431   -5949.3088    13.440161    13.567181    13.463008     2.448567    1878.7486      1826.87 
 1115000    873.55321   -895.39268            0   -880.93948   -6131.0266    13.440161    13.567181    13.463008    2.3675473    1880.5785    1824.9949 
 1116000    902.58578   -893.27751            0   -878.34396   -4519.6305    13.440161    13.567181    13.463008    3.0172646    1882.4599    1823.1698 
 1117000    686.42164   -893.43819            0   -882.08114    -6646.265    13.440161    13.567181    13.463008    2.4495175    1884.2974    1821.3022 
 1118000    793.82847    -893.1886            0   -880.05447   -3740.4554    13.440161    13.567181    13.463008    2.0785065    1886.1874    1819.4853 
 1119000    815.33337   -893.09176            0   -879.60182   -3268.9916    13.440161    13.567181    13.463008    2.5265498    1888.0213    1817.6142 
 1120000    777.66172   -895.76403            0   -882.89739   -5153.6101    13.440161    13.567181    13.463008    2.0415096     1889.856     1815.744 
 1121000    867.82964   -894.49799            0   -880.13949    5.0998801    13.440161    13.567181    13.463008    2.4387192    1891.6861    1813.8694 
 1122000    814.53072   -893.59583            0   -880.11917   -5776.0368    13.440161    13.567181    13.463008    1.9221497    1893.5324    1812.0105 
 1123000    768.47335   -895.49846            0   -882.78384   -7108.1559    13.440161    13.567181    13.463008    2.0539083    1895.3656     1810.139 
 1124000    781.89533   -893.22567            0   -880.28898    -993.5956    13.440161    13.567181    13.463008    2.8567084    1897.1971     1808.266 
 1125000    870.45831    -894.8067            0    -880.4047   -4451.9267    13.440161    13.567181    13.463008    2.1736334     1899.028    1806.3925 
 1126000     734.5639   -895.34085            0   -883.18727   -5966.6709    13.440161    13.567181    13.463008    1.8548135    1900.8727    1804.5322 
 1127000    804.47195   -893.51938            0   -880.20915   -5797.4278    13.440161    13.567181    13.463008    2.6553874     1902.703    1802.6583 
 1128000    832.37189   -893.79709            0   -880.02525   -278.90265    13.440161    13.567181    13.463008    3.3160733    1904.5881    1800.8363 
 1129000    744.15189   -895.14063            0   -882.82841   -3891.0995    13.440161    13.567181    13.463008    2.2452505    1906.4163    1798.9604 
 1130000    882.62597   -894.31513            0   -879.71182   -3565.0318    13.440161    13.567181    13.463008    2.1921735    1908.2478    1797.0878 
 1131000    765.00057    -892.7269            0   -880.06974   -3479.6437    13.440161    13.567181    13.463008    2.3736202    1910.1283    1795.2612 
 1132000    783.89688   -895.25124            0   -882.28143   -5797.8884    13.440161    13.567181    13.463008    1.8204327    1911.9743    1793.4023 
 1133000    796.07355   -891.92945            0   -878.75818   -2418.8412    13.440161    13.567181    13.463008    2.7021461    1913.8225    1791.5453 
 1134000    874.29865   -895.13385            0   -880.66832   -7829.2051    13.440161    13.567181    13.463008    1.9380854    1915.6587    1789.6773 
 1135000    791.63682    -894.4551            0   -881.35723   -5975.2848    13.440161    13.567181    13.463008    2.2956935    1917.5171    1787.8299 
 1136000    836.81975   -894.05772            0   -880.21229   -4402.0283    13.440161    13.567181    13.463008      1.88523    1919.3523    1785.9611 
 1137000    775.17984   -892.95678            0    -880.1312   -3219.8889    13.440161    13.567181    13.463008    2.7013251    1921.2104    1784.1134 
 1138000    744.63373   -895.00224            0   -882.68205   -5756.7287    13.440161    13.567181    13.463008     1.821802    1923.0489    1782.2476 
 1139000    721.40516   -891.80924            0   -879.87337   -2486.9759    13.440161    13.567181    13.463008    2.9461854    1924.9008    1780.3943 
 1140000    796.29117    -893.1861            0   -880.01122   -2142.5423    13.440161    13.567181    13.463008    2.9323641    1926.7321    1778.5219 
 1141000    734.33192   -895.74589            0   -883.59615     -6639.73    13.440161    13.567181    13.463008    1.7001467    1928.5789     1776.664 
 1142000    698.38138    -893.3127            0   -881.75778   -5118.0814    13.440161    13.567181    13.463008    2.7038548    1930.4081    1774.7898 
 1143000    831.00224   -893.25857            0   -879.50938   -534.20514    13.440161    13.567181    13.463008    2.5879883    1932.2555    1772.9324 
 1144000    817.90602   -894.03974            0   -880.50724   -2081.1981    13.440161    13.567181    13.463008    2.1459632    1934.0854     1771.059 
 1145000    719.68321   -894.01983            0   -882.11246   -6539.8459    13.440161    13.567181    13.463008    2.9185612    1935.9296    1769.1988 
 1146000    785.31108   -893.01576            0   -880.02255   -2988.3964    13.440161    13.567181    13.463008    2.4945398    1937.7681    1767.3334 
 1147000     830.3592   -894.64243            0   -880.90389   -6972.4317    13.440161    13.567181    13.463008    2.1347348    1939.6293    1765.4887 
 1148000    728.32534   -895.11911            0   -883.06875   -7610.5801    13.440161    13.567181    13.463008    2.5068998    1941.4662    1763.6219 
 1149000    797.21298   -893.45393            0    -880.2638   -2497.8939    13.440161    13.567181    13.463008    2.2842851    1943.3344    1761.7836 
 1150000    802.76112   -893.20057            0   -879.91865   -4391.7637    13.440161    13.567181    13.463008    3.2025405    1945.1717    1759.9172 
 1151000    703.94437   -894.81409            0   -883.16712   -6255.2429    13.440161    13.567181    13.463008    2.9530733    1947.0367    1758.0759 
 1152000    782.76496   -893.18981            0   -880.23873   -3984.9914    13.440161    13.567181    13.463008     1.928501    1948.8855      1756.22 
 1153000    763.12952   -892.83761            0   -880.21141   -3862.0271    13.440161    13.567181    13.463008    2.3763775    1950.7614    1754.3884 
 1154000    767.31798   -894.01037            0   -881.31487    -3366.167    13.440161    13.567181    13.463008    1.9715116     1952.592    1752.5161 
 1155000    809.76674   -893.43907            0   -880.04123   -2681.8734    13.440161    13.567181    13.463008    2.1746949    1954.4344    1750.6545 
 1156000     793.5895   -892.28752            0   -879.15734   -2628.3428    13.440161    13.567181    13.463008    1.9097503    1956.2678    1748.7849 
 1157000    791.70669   -894.89205            0   -881.79302   -5674.2121    13.440161    13.567181    13.463008    2.0520103    1958.1135    1746.9263 
 1158000    912.10582   -894.71144            0   -879.62037   -1802.4379    13.440161    13.567181    13.463008    2.5319925    1959.9606    1745.0689 
 1159000    853.62238   -894.16348            0   -880.04005   -3800.8902    13.440161    13.567181    13.463008    2.3139392    1961.7892    1743.1952 
 1160000    751.76859   -894.28157            0   -881.84334   -5766.0271    13.440161    13.567181    13.463008    2.7683718     1963.638    1741.3394 
 1161000    802.32866   -892.38485            0   -879.11009   -2795.3377    13.440161    13.567181    13.463008    2.4642353    1965.4847    1739.4818 
 1162000    816.19229   -893.98939            0   -880.48525   -4817.0615    13.440161    13.567181    13.463008    2.2400978    1967.3412    1737.6328 
 1163000    824.37544   -894.48285            0   -880.84331   -3714.8176    13.440161    13.567181    13.463008    2.6411176    1969.1877     1735.775 
 1164000    802.27582   -893.29691            0   -880.02302   -1872.7881    13.440161    13.567181    13.463008    1.9307654    1971.0428    1733.9249 
 1165000    852.93269   -893.16939            0   -879.05736   -6052.7122    13.440161    13.567181    13.463008    3.2384577    1972.9293    1732.1022 
 1166000    774.43684   -894.97059            0    -882.1573   -5779.8621    13.440161    13.567181    13.463008    2.3436402    1974.7669    1730.2367 
 1167000    802.03048   -892.78561            0   -879.51578    1815.0701    13.440161    13.567181    13.463008    2.2477374    1976.6026    1728.3694 
 1168000     811.8083   -892.93076            0   -879.49915   -3483.3988    13.440161    13.567181    13.463008    2.0040328    1978.5598    1726.6084 
 1169000    667.69196    -892.5943            0   -881.54714   -5481.2184    13.440161    13.567181    13.463008    1.9887568    1980.3931     1724.739 
 1170000    729.90568    -894.6119            0   -882.53539   -8179.0252    13.440161    13.567181    13.463008    2.0934957    1982.2249    1722.8684 
 1171000    853.15738     -893.328            0   -879.21225   -2645.7509    13.440161    13.567181    13.463008    2.3293849    1984.0577    1720.9987 
 1172000    760.81318   -893.38436            0   -880.79648   -1365.6539    13.440161    13.567181    13.463008    2.0962774    1985.9969    1719.2212 
 1173000    775.09125   -895.04137            0   -882.21725   -5413.0456    13.440161    13.567181    13.463008    1.7480566    1987.8306    1717.3523 
 1174000    776.27568   -893.25586            0   -880.41215   -3707.4926    13.440161    13.567181    13.463008    2.5663249    1989.7066    1715.5199 
 1175000     803.3145   -892.75903            0   -879.46795   -549.37614    13.440161    13.567181    13.463008    2.8804638    1991.5378    1713.6488 
 1176000    787.59129    -894.1573            0   -881.12636   -6314.7184    13.440161    13.567181    13.463008    1.9630945    1993.3735    1711.7817 
 1177000    759.53228   -893.64329            0    -881.0766   -4228.3451    13.440161    13.567181    13.463008    2.1030858    1995.2089    1709.9144 
 1178000    886.98739   -893.34199            0   -878.66652   -3471.3875    13.440161    13.567181    13.463008    2.0536731    1997.0731    1708.0718 
 1179000    742.44052   -892.75458            0   -880.47068   -4392.2933    13.440161    13.567181    13.463008    2.2383291    1998.9136     1706.209 
 1180000    789.94709   -893.52894            0   -880.45903   -6805.0621    13.440161    13.567181    13.463008    2.1350468    2000.7879    1704.3749 
 1181000     920.0865   -893.47432            0   -878.25121   -2948.8992    13.440161    13.567181    13.463008    2.2973978    2002.6253    1702.5094 
 1182000    797.25578   -893.18926            0   -879.99843   -3620.0879    13.440161    13.567181    13.463008    2.5265383    2004.4601    1700.6417 
 1183000    768.37521   -893.81113            0   -881.09813    -4036.559    13.440161    13.567181    13.463008     2.624167    2006.2927    1698.7723 
 1184000    891.33764   -892.62119            0   -877.87374   -1548.6261    13.440161    13.567181    13.463008    2.0581591     2008.126    1696.9035 
 1185000    841.49374   -894.45222            0   -880.52946   -3102.4599    13.440161    13.567181    13.463008    2.3136794    2009.9828    1695.0546 
 1186000    788.68465   -893.82292            0    -880.7739   -3309.4926    13.440161    13.567181    13.463008     2.529603    2011.8161     1693.186 
 1187000     890.2858   -893.77051            0   -879.04046   -5020.6802    13.440161    13.567181    13.463008    2.1189187    2013.7071    1691.3657 
 1188000    811.33901   -894.70397            0   -881.28013   -1721.8432    13.440161    13.567181    13.463008    2.1639342     2015.541    1689.4976 
 1189000    731.68867    -893.2075            0   -881.10149   -3578.3379    13.440161    13.567181    13.463008    2.4034261    2017.3761    1687.6305 
 1190000    875.86105   -893.81097            0   -879.31959    -4905.741    13.440161    13.567181    13.463008    2.3531719    2019.2089    1685.7616 
 1191000    786.65957   -893.98585            0   -880.97033   -4610.0353    13.440161    13.567181    13.463008    2.3131686    2021.0482    1683.8981 
 1192000     672.2354   -893.08243            0   -881.96009   -7157.1706    13.440161    13.567181    13.463008    2.1134361    2022.8804    1682.0288 
 1193000    840.22027   -892.82927            0   -878.92758   -6138.6008    13.440161    13.567181    13.463008    1.9305339    2024.7837    1680.2185 
 1194000    767.21733   -893.89189            0   -881.19805   -2705.9074    13.440161    13.567181    13.463008     2.289208    2026.6548    1678.3814 
 1195000    756.62414   -894.18176            0   -881.66319   -6764.8894    13.440161    13.567181    13.463008    2.2600429    2028.5063     1676.528 
 1196000    799.20269   -893.37181            0   -880.14876    -5002.913    13.440161    13.567181    13.463008    2.3496141    2030.3851    1674.6972 
 1197000     835.6556   -892.69061            0   -878.86444   -6775.6447    13.440161    13.567181    13.463008    2.0360654    2032.2897    1672.8875 
 1198000    766.31179   -893.23439            0   -880.55553    -6200.811    13.440161    13.567181    13.463008    2.4911769    2034.1258    1671.0213 
 1199000    813.68863   -894.99854            0   -881.53582   -6554.0557    13.440161    13.567181    13.463008    2.0706834    2035.9638    1669.1569 
 1200000    875.37082   -892.90779            0   -878.42452   -1186.3217    13.440161    13.567181    13.463008    2.4301112    2037.8123     1667.301 
 1201000    742.06464   -892.78393            0   -880.50625   -4297.4307    13.440161    13.567181    13.463008    2.0874137     2039.727    1665.4991 
 1202000    827.02935   -894.16062            0   -880.47717   -3586.6817    13.440161    13.567181    13.463008    2.4508066    2041.5811    1663.6477 
 1203000    866.52769   -892.19835            0   -877.86139   -2715.0764    13.440161    13.567181    13.463008    1.8756839    2043.4153    1661.7802 
 1204000    723.16848    -892.7896            0   -880.82456   -4174.8109    13.440161    13.567181    13.463008    2.6073434     2045.251    1659.9138 
 1205000    816.04591   -892.97081            0   -879.46909   -5225.3791    13.440161    13.567181    13.463008    2.5336927    2047.0829    1658.0445 
 1206000    887.75374   -891.97157            0   -877.28342   -802.86478    13.440161    13.567181    13.463008    2.5743867     2048.936    1656.1924 
 1207000    855.33309   -894.09852            0   -879.94678   -4126.2149    13.440161    13.567181    13.463008    3.0429841    2050.7695    1654.3245 
 1208000    801.46432   -894.31065            0   -881.05019   -5642.2433    13.440161    13.567181    13.463008    2.0282023    2052.6561    1652.4993 
 1209000    843.32363   -892.02258            0   -878.06953   -4534.5592    13.440161    13.567181    13.463008    2.2585216    2054.4892    1650.6311 
 1210000    763.18566   -893.15009            0   -880.52296   -7006.7448    13.440161    13.567181    13.463008    3.0223452    2056.3224     1648.763 
 1211000    793.89597   -893.72797            0   -880.59273   -4770.6207    13.440161    13.567181    13.463008     2.297301    2058.1547    1646.8943 
 1212000    911.00695   -893.30141            0   -878.22853    -2673.416    13.440161    13.567181    13.463008    2.4199042     2060.023    1645.0543 
 1213000    866.28719   -891.47847            0   -877.14549   -710.61464    13.440161    13.567181    13.463008    2.5926295     2061.859    1643.1886 
 1214000    812.41772   -894.19275            0   -880.75106   -5472.1867    13.440161    13.567181    13.463008    2.0317134    2063.6942    1641.3223 
 1215000     803.4041   -892.85142            0   -879.55886   -1230.9074    13.440161    13.567181    13.463008    3.2276638    2065.5296    1639.4562 
 1216000    858.78189   -892.51605            0   -878.30724   -5858.1129    13.440161    13.567181    13.463008    2.1091601    2067.4131    1637.6283 
 1217000     739.7281    -893.5565            0   -881.31748   -6408.3343    13.440161    13.567181    13.463008    2.1887518    2069.2465    1635.7606 
 1218000    814.14794   -892.25912            0    -878.7888   -3452.6145    13.440161    13.567181    13.463008    1.9433268    2071.1808    1633.9727 
 1219000    756.10619   -893.67047            0   -881.16047   -5556.2116    13.440161    13.567181    13.463008    2.1326614     2073.027    1632.1151 
 1220000    822.19353   -894.65587            0   -881.05243   -4833.8154    13.440161    13.567181    13.463008    1.9187791    2074.8604    1630.2474 
 1221000    872.85411   -893.91561            0   -879.47398   -2724.1448    13.440161    13.567181    13.463008    2.7156005    2076.6939      1628.38 
 1222000    824.97309    -893.7536            0   -880.10418   -3889.8369    13.440161    13.567181    13.463008      2.33766    2078.5865    1626.5588 
 1223000    876.20156   -894.75672            0    -880.2597   -2857.9998    13.440161    13.567181    13.463008    1.9248927    2080.4223    1624.6931 
 1224000    787.05846   -892.99114            0   -879.96902   -4154.4735    13.440161    13.567181    13.463008    2.2757298    2082.2585    1622.8278 
 1225000    805.83405   -892.94102            0   -879.60825   -4395.6413    13.440161    13.567181    13.463008    2.2519872    2084.1361    1620.9948 
 1226000     699.1498   -893.09979            0   -881.53215   -6673.1723    13.440161    13.567181    13.463008    2.5378867    2085.9722    1619.1294 
 1227000    819.35397    -893.3251            0   -879.76865   -2867.2181    13.440161    13.567181    13.463008    2.6340804    2087.8181    1617.2717 
 1228000    805.59973   -892.37479            0    -879.0459    881.92564    13.440161    13.567181    13.463008    2.1347041    2089.6508    1615.4038 
 1229000    744.11286   -893.60594            0   -881.29437   -3550.9585    13.440161    13.567181    13.463008    2.3982201    2091.4851    1613.5372 
 1230000    897.16113   -894.35931            0   -879.51551   -5109.4534    13.440161    13.567181    13.463008    1.7943143    2093.3168    1611.6687 
 1231000    914.52871   -892.17327            0   -877.04212   -1983.8577    13.440161    13.567181    13.463008    2.0836439    2095.1838    1609.8273 
 1232000    772.01745   -893.66261            0   -880.88935   -5875.0862    13.440161    13.567181    13.463008    1.9427793    2097.0177    1607.9606 
 1233000    822.20292   -893.81312            0   -880.20953   -6729.1759    13.440161    13.567181    13.463008    3.5586146    2098.8506    1606.0931 
 1234000    806.97439   -891.55488            0   -878.20325   -4897.1025    13.440161    13.567181    13.463008    2.3052934    2100.6856    1604.2273 
 1235000    739.38841   -892.99644            0   -880.76303   -4424.8411    13.440161    13.567181    13.463008    2.1365013    2102.5376    1602.3745 
 1236000    863.62699   -894.19792            0   -879.90895   -5762.4328    13.440161    13.567181    13.463008    1.9974969    2104.3736    1600.5095 
 1237000    883.71404   -892.91422            0   -878.29291   -2728.0094    13.440161    13.567181    13.463008    2.2082828    2106.2519    1598.6767 
 1238000    685.99888   -893.07294            0   -881.72288   -7788.0347    13.440161    13.567181    13.463008    1.8991952    2108.0837    1596.8086 
 1239000    718.64491   -891.30439            0   -879.41419    -2375.486    13.440161    13.567181    13.463008    2.2674943    2109.9181    1594.9425 
 1240000     818.0918   -892.72247            0    -879.1869   -3145.8566    13.440161    13.567181    13.463008    2.5850364    2111.7533    1593.0771 
 1241000    833.71266   -893.98966            0   -880.19563   -2177.8119    13.440161    13.567181    13.463008    3.2664373    2113.6161    1591.2325 
 1242000    662.37453   -893.46115            0   -882.50197   -6311.5504    13.440161    13.567181    13.463008    2.0620612    2115.4496    1589.3658 
 1243000    788.96278   -892.96412            0    -879.9105   -4814.3276    13.440161    13.567181    13.463008    2.2402126    2117.2849    1587.5006 
 1244000    779.33609   -892.21327            0   -879.31892   -3889.2566    13.440161    13.567181    13.463008    3.4639413     2119.117     1585.633 
 1245000    693.31684   -893.78842            0   -882.31729   -3858.0632    13.440161    13.567181    13.463008    2.0098529    2120.9712     1583.782 
 1246000    708.95448   -891.62712            0   -879.89725   -3269.0408    13.440161    13.567181    13.463008    2.3266874    2122.8171    1581.9248 
 1247000    816.72841   -893.17246            0   -879.65945   -2131.9135    13.440161    13.567181    13.463008    2.4461745    2124.7223    1580.1117 
 1248000    762.96529   -894.36207            0   -881.73859   -5129.1657    13.440161    13.567181    13.463008    2.1232623    2126.5602    1578.2485 
 1249000    814.95298   -893.12638            0   -879.64274   -4375.4253    13.440161    13.567181    13.463008    2.1086488    2128.3942    1576.3825 
 1250000    814.50511   -892.69859            0   -879.22236   -4311.7027    13.440161    13.567181    13.463008    2.8978895    2130.2338    1574.5207 
 1251000    701.25622   -893.40368            0   -881.80119   -2552.3285    13.440161    13.567181    13.463008    2.4103861    2132.0713    1572.6573 
 1252000    819.47026   -894.31742            0   -880.75904   -2634.9023    13.440161    13.567181    13.463008    2.3712505    2133.9148    1570.7984 
 1253000    768.00792   -892.19781            0   -879.49089   -2491.2328    13.440161    13.567181    13.463008    2.6422871     2135.753    1568.9357 
 1254000    785.22913     -893.066            0   -880.07415   -9490.7505    13.440161    13.567181    13.463008    1.8020295    2137.5914    1567.0731 
 1255000    730.73007   -893.99874            0   -881.90859   -6682.0112    13.440161    13.567181    13.463008    2.6112375    2139.4276    1565.2089 
 1256000    843.74422    -892.7494            0    -878.7894   -2084.7062    13.440161    13.567181    13.463008    2.1273591    2141.2794    1563.3562 
 1257000    808.51171   -893.64585            0   -880.26878   -4309.7383    13.440161    13.567181    13.463008    2.3264876    2143.1177    1561.4937 
 1258000    788.46547   -894.76864            0   -881.72324   -4654.0651    13.440161    13.567181    13.463008    2.5026648    2144.9541    1559.6298 
 1259000    749.23362   -893.67732            0   -881.28102   -6628.9149    13.440161    13.567181    13.463008    2.0201181    2146.7872    1557.7636 
 1260000    838.06246   -892.73906            0   -878.87306    1055.4901    13.440161    13.567181    13.463008    1.9759527    2148.6355    1555.9084 
 1261000    764.85291   -894.69538            0   -882.04066   -7641.5051    13.440161    13.567181    13.463008    2.5190243    2150.4697    1554.0431 
 1262000    792.96704   -894.27408            0    -881.1542   -1884.4433    13.440161    13.567181    13.463008    2.3497243    2152.3031    1552.1773 
 1263000    890.90382    -894.0688            0   -879.32853   -4554.1727    13.440161    13.567181    13.463008    2.4307019    2154.1388    1550.3131 
 1264000    736.31422   -894.46374            0    -882.2812   -5994.5841    13.440161    13.567181    13.463008    2.0729986    2155.9759    1548.4501 
 1265000    731.76741   -892.79125            0   -880.68394   -2665.4378    13.440161    13.567181    13.463008    3.2999003    2157.8098    1546.5847 
 1266000    769.00231   -892.42385            0   -879.70048   -3926.1067    13.440161    13.567181    13.463008    2.9855801    2159.7184    1544.7728 
 1267000    763.88206   -894.64015            0    -882.0015   -4877.3418    13.440161    13.567181    13.463008    2.2307305    2161.5535    1542.9083 
 1268000    725.46514   -894.98115            0   -882.97812   -5046.2863    13.440161    13.567181    13.463008    3.6906563    2163.4071    1541.0571 
 1269000    790.52602   -893.58299            0    -880.5035    -2770.956    13.440161    13.567181    13.463008    2.6464826    2165.2417    1539.1923 
 1270000    817.55601   -892.62551            0    -879.0988   -1265.5293    13.440161    13.567181    13.463008    2.3079536    2167.1095    1537.3512 
 1271000    733.72454   -894.55692            0   -882.41723   -6221.2865    13.440161    13.567181    13.463008    1.9853888    2168.9698    1535.5046 
 1272000    805.90707   -893.93918            0   -880.60521   -2779.3693    13.440161    13.567181    13.463008    2.2144162    2170.8521    1533.6736 
 1273000    764.99095   -892.80334            0   -880.14634   -3262.3527    13.440161    13.567181    13.463008    2.4128975    2172.6909    1531.8119 
 1274000    864.33833   -895.40101            0   -881.10028   -8023.3445    13.440161    13.567181    13.463008    1.6310433    2174.5278    1529.9489 
 1275000     714.6261   -894.23011            0   -882.40641   -6816.0342    13.440161    13.567181    13.463008    2.3836553    2176.4356    1528.1356 
 1276000    823.02111   -892.90967            0   -879.29254   -5068.9575    13.440161    13.567181    13.463008    2.4742914    2178.2802     1526.278 
 1277000    729.79018    -892.9728            0    -880.8982    -4166.558    13.440161    13.567181    13.463008    2.7218344    2180.1149    1524.4134 
 1278000    635.08609   -895.07285            0   -884.56516   -7183.1834    13.440161    13.567181    13.463008    2.6893345    2181.9504    1522.5495 
 1279000    723.09065   -892.99905            0    -881.0353   -5187.5486    13.440161    13.567181    13.463008    1.9774522    2183.8552    1520.7338 
 1280000    867.11945   -893.84977            0   -879.50302    -1905.078    13.440161    13.567181    13.463008    2.6187703    2185.6911    1518.8701 
 1281000    738.70368   -893.53643            0   -881.31436   -5111.3583    13.440161    13.567181    13.463008    2.3235122    2187.5584    1517.0282 
 1282000    788.33845   -894.57203            0   -881.52873   -3156.8965    13.440161    13.567181    13.463008    2.3456314    2189.3924    1515.1633 
 1283000    839.41252   -893.05967            0   -879.17134   -2302.1039    13.440161    13.567181    13.463008    2.0412745    2191.2257    1513.2979 
 1284000    706.85431   -893.32066            0   -881.62555   -6318.0696    13.440161    13.567181    13.463008    4.6094064    2193.0611     1511.434 
 1285000    881.08918   -892.90408            0    -878.3262   -4725.4882    13.440161    13.567181    13.463008    2.1319075    2194.9111    1509.5802 
 1286000      781.563   -892.81243            0   -879.88124   -1853.9526    13.440161    13.567181    13.463008     2.731064    2196.7515    1507.7198 
 1287000    801.88832   -894.48627            0   -881.21879   -3759.8112    13.440161    13.567181    13.463008    2.0638024    2198.5987    1505.8642 
 1288000    845.60362   -892.06797            0    -878.0772   -4993.2666    13.440161    13.567181    13.463008    2.3317316    2200.4322    1503.9991 
 1289000    828.70938   -893.50405            0    -879.7928   -4824.0712    13.440161    13.567181    13.463008    1.6182507    2202.2703    1502.1373 
 1290000    803.81499    -894.2309            0   -880.93154    -5505.084    13.440161    13.567181    13.463008    2.1063137    2204.1191    1500.2827 
 1291000    852.08313   -893.81135            0   -879.71338   -2581.5959    13.440161    13.567181    13.463008    2.2797654    2205.9659    1498.4269 
 1292000    880.92907   -893.80727            0   -879.23203   -6210.1545    13.440161    13.567181    13.463008    1.8503362    2207.8266    1496.5804 
 1293000    771.94041   -894.20697            0   -881.43498   -6371.8191    13.440161    13.567181    13.463008    2.4688206    2209.7259    1494.7601 
 1294000    693.20775   -891.15332            0     -879.684   -2429.7035    13.440161    13.567181    13.463008    3.2358916    2211.5585    1492.8946 
 1295000    941.25394    -892.1453            0   -876.57197   -3139.4777    13.440161    13.567181    13.463008    2.3690437    2213.3916    1491.0295 
 1296000    771.43142    -892.9185            0   -880.15494   -3714.9962    13.440161    13.567181    13.463008    2.6615827    2215.2813    1489.2025 
 1297000    794.66469   -894.59069            0   -881.44272    -7145.361    13.440161    13.567181    13.463008    1.8660663    2217.1334    1487.3501 
 1298000    739.38954   -891.63167            0   -879.39825   -3658.8433    13.440161    13.567181    13.463008    2.5624264    2218.9658    1485.4846 
 1299000    809.34956    -893.1936            0   -879.80267    -3057.414    13.440161    13.567181    13.463008    3.2160429    2220.8003    1483.6205 
 1300000    763.62197    -894.2555            0   -881.62115   -2694.6703    13.440161    13.567181    13.463008    2.9339378    2222.6606    1481.7737 
 1301000    864.40045   -893.63649            0   -879.33473   -2354.9701    13.440161    13.567181    13.463008    2.1768695    2224.4925     1479.908 
 1302000    836.11377   -894.33288            0   -880.49913    -3320.712    13.440161    13.567181    13.463008    1.7711001     2226.465    1478.1357 
 1303000    740.65066   -894.10253            0   -881.84824   -3839.9279    13.440161    13.567181    13.463008    2.4200469    2228.3087    1476.2777 
 1304000    835.68321   -892.89757            0   -879.07094   -3658.3299    13.440161    13.567181    13.463008    2.7771984    2230.1426    1474.4132 
 1305000     814.5813   -893.91993            0   -880.44244   -6904.1838    13.440161    13.567181    13.463008    2.3172355    2231.9753     1472.548 
 1306000    717.99417   -892.63593            0    -880.7565   -4874.4192    13.440161    13.567181    13.463008    2.6462622    2233.9041    1470.7462 
 1307000    802.31694   -893.76796            0   -880.49339   -4144.6938    13.440161    13.567181    13.463008    2.3899688    2235.7373    1468.8813 
 1308000    771.77663   -892.98215            0   -880.21287   -2108.5099    13.440161    13.567181    13.463008    3.1973365    2237.6744    1467.0845 
 1309000    840.17928   -893.74428            0   -879.84326   -5816.6557    13.440161    13.567181    13.463008    2.1826665    2239.5068    1465.2191 
 1310000    687.64501   -893.07962            0   -881.70233   -1472.6948    13.440161    13.567181    13.463008    2.3797447    2241.3399    1463.3542 
 1311000    773.12726   -894.35567            0   -881.56405   -4175.9813    13.440161    13.567181    13.463008    2.1119764    2243.2114    1461.5143 
 1312000      876.937   -893.67566            0   -879.16648   -5458.4574    13.440161    13.567181    13.463008    1.9482728    2245.0793     1459.672 
 1313000    730.08095   -893.78884            0   -881.70943   -7180.3891    13.440161    13.567181    13.463008    2.6409847    2246.9491    1457.8309 
 1314000    867.07508    -892.2652            0   -877.91919   -1138.3188    13.440161    13.567181    13.463008    2.5271979    2248.7811    1455.9654 
 1315000    804.25579   -893.54018            0   -880.23353   -6218.6901    13.440161    13.567181    13.463008    3.3134964    2250.6143    1454.1006 
 1316000    717.01617   -893.32512            0   -881.46187   -4199.4348    13.440161    13.567181    13.463008    3.8720213    2252.4469    1452.2355 
 1317000    899.65164    -892.7014            0    -877.8164   -3078.7095    13.440161    13.567181    13.463008     2.084877    2254.3329    1450.4048 
 1318000    814.63676   -893.51711            0    -880.0387   -4158.0728    13.440161    13.567181    13.463008    1.7810402    2256.1669    1448.5407 
 1319000    806.62591   -894.41449            0   -881.06862   -5415.8054    13.440161    13.567181    13.463008    3.1904601    2257.9989    1446.6753 
 1320000    710.90587   -892.20583            0   -880.44368   -6534.5723    13.440161    13.567181    13.463008    2.4555296    2259.8317    1444.8104 
 1321000    821.28459   -892.55133            0   -878.96293    -1034.085    13.440161    13.567181    13.463008    2.2036961    2261.6763    1442.9532 
 1322000    759.20312   -894.56345            0    -882.0022   -4968.6735    13.440161    13.567181    13.463008    2.0296069    2263.5087    1441.0882 
 1323000    836.51679   -894.18077            0   -880.34035   -4227.0447    13.440161    13.567181    13.463008    1.8725563    2265.3665    1439.2394 
 1324000    874.14544   -894.55995            0   -880.09696    -3906.663    13.440161    13.567181    13.463008    2.3600046     2267.201    1437.3758 
 1325000     746.4414   -892.96345            0   -880.61336   -5547.2131    13.440161    13.567181    13.463008    2.8830603    2269.0339    1435.5112 
 1326000    795.50314    -892.5376            0   -879.37576   -3270.4916    13.440161    13.567181    13.463008    2.9745028    2270.8652    1433.6457 
 1327000    797.03859      -892.91            0   -879.72275   -1355.0819    13.440161    13.567181    13.463008    2.3880747    2272.7561    1431.8178 
 1328000    748.31762   -894.12051            0   -881.73937   -4696.3193    13.440161    13.567181    13.463008    3.0623486    2274.5872    1429.9522 
 1329000    810.52962   -891.26859            0   -877.85814   -236.17096    13.440161    13.567181    13.463008    2.6171119    2276.4434    1428.1024 
 1330000    878.93491   -894.17364            0    -879.6314   -4665.0781    13.440161    13.567181    13.463008    2.1866576    2278.3415    1426.2788 
 1331000    776.23257    -894.1092            0    -881.2662   -3562.6809    13.440161    13.567181    13.463008    2.1464297    2280.1816    1424.4189 
 1332000    877.01854   -892.74598            0   -878.23545   -4221.0508    13.440161    13.567181    13.463008    2.5270518    2282.0479    1422.5753 
 1333000    792.84355   -893.12315            0   -880.00532   -3528.5167    13.440161    13.567181    13.463008    2.4990741    2283.8927    1420.7183 
 1334000    808.92653   -894.45404            0   -881.07011   -7309.0573    13.440161    13.567181    13.463008    2.4699417    2285.7466     1418.867 
 1335000    891.76218   -893.31811            0   -878.56364     -763.198    13.440161    13.567181    13.463008    2.2378474    2287.5957    1417.0127 
 1336000    822.38805   -893.13284            0   -879.52619   -5805.9711    13.440161    13.567181    13.463008     4.081952      2289.46    1415.1679 
 1337000    816.54243   -894.53995            0   -881.03001     -6698.24    13.440161    13.567181    13.463008    2.7869628    2291.3005    1413.3082 
 1338000    885.83232    -894.1768            0   -879.52044   -3085.2611    13.440161    13.567181    13.463008    1.9737929    2293.1457    1411.4515 
 1339000    873.43886   -893.31025            0   -878.85895   -2382.1343    13.440161    13.567181    13.463008    2.1600611    2294.9852    1409.5914 
 1340000    708.57435   -893.51464            0   -881.79107   -7653.6826    13.440161    13.567181    13.463008    2.0082573    2296.8425    1407.7422 
 1341000    922.00934   -894.41646            0   -879.16154   -6194.2952    13.440161    13.567181    13.463008     1.601703    2298.6895    1405.8866 
 1342000    749.90488   -893.88428            0   -881.47688   -4862.8904    13.440161    13.567181    13.463008     2.619179    2300.5402    1404.0334 
 1343000    755.54372   -893.71484            0   -881.21414   -5636.1448    13.440161    13.567181    13.463008    2.5219432    2302.3733    1402.1694 
 1344000    858.77955   -893.49545            0   -879.28669   -5921.9006    13.440161    13.567181    13.463008    2.6786716     2304.205    1400.3046 
 1345000    705.52021   -894.57073            0   -882.89769   -6910.0738    13.440161    13.567181    13.463008    3.0227002    2306.0363    1398.4397 
 1346000    746.62895   -893.53511            0   -881.18191   -3165.7486    13.440161    13.567181    13.463008      2.51276     2307.898    1396.5932 
 1347000     874.2901   -894.12954            0   -879.66415   -2793.2107    13.440161    13.567181    13.463008    1.9315421    2309.7341    1394.7312 
 1348000    701.09642   -894.24374            0   -882.64389   -6323.0219    13.440161    13.567181    13.463008    2.2459839    2311.5699     1392.869 
 1349000    748.34152   -893.55545            0   -881.17392   -6569.3767    13.440161    13.567181    13.463008    2.0794328    2313.3989    1391.0029 
 1350000    785.36195   -892.91037            0   -879.91632   -1181.6348    13.440161    13.567181    13.463008    2.2563866    2315.2345    1389.1407 
 1351000    770.36894   -894.41795            0   -881.67197   -7628.2714    13.440161    13.567181    13.463008    2.1218276    2317.0682    1387.2774 
 1352000    729.50998   -893.64518            0   -881.57522   -5005.9218    13.440161    13.567181    13.463008    1.7174682    2318.9147    1385.4219 
 1353000    837.80199   -893.58402            0   -879.72233   -4044.3133    13.440161    13.567181    13.463008    2.2675183    2320.7523     1383.561 
 1354000    776.53303    -894.6154            0   -881.76743   -3981.0467    13.440161    13.567181    13.463008    2.0720052    2322.5954    1381.7035 
 1355000     738.5463   -895.17821            0   -882.95874   -5328.1865    13.440161    13.567181    13.463008    1.8024446    2324.4382    1379.8458 
 1356000    894.67771   -894.19907            0   -879.39636   -2596.5016    13.440161    13.567181    13.463008    2.5462351    2326.2702    1377.9817 
 1357000    774.67667     -893.863            0   -881.04574   -1423.6009    13.440161    13.567181    13.463008    2.4279318    2328.1153    1376.1254 
 1358000    767.45872    -894.6659            0   -881.96806   -6285.4849    13.440161    13.567181    13.463008    2.3999177    2329.9478    1374.2617 
 1359000    753.72186   -891.64816            0    -879.1776   -3360.2537    13.440161    13.567181    13.463008    2.8196755    2331.8047    1372.4125 
 1360000    726.21433   -893.67343            0   -881.65799   -489.34154    13.440161    13.567181    13.463008    2.4249048    2333.6361    1370.5482 
 1361000    755.23631   -892.47378            0   -879.97817    1830.3553    13.440161    13.567181    13.463008    2.4157249    2335.4862    1368.6949 
 1362000    814.80084   -892.70363            0   -879.22251   -2315.8333    13.440161    13.567181    13.463008    4.4088815    2337.3196    1366.8319 
 1363000    774.38148   -893.59232            0   -880.77995   -5796.7282    13.440161    13.567181    13.463008    2.4824363    2339.1569    1364.9712 
 1364000    784.34899   -893.43452            0   -880.45723   -4250.3979    13.440161    13.567181    13.463008    2.1038061    2341.0374    1363.1357 
 1365000    824.94664   -894.06266            0   -880.41367   -4862.2144    13.440161    13.567181    13.463008    2.3259559    2342.9359    1361.3106 
 1366000    764.03347   -894.53959            0   -881.89843   -6898.2479    13.440161    13.567181    13.463008    1.8533988     2344.773    1359.4497 
 1367000    861.39615   -894.07582            0   -879.82377   -3879.3323    13.440161    13.567181    13.463008     2.055959    2346.6238    1357.5969 
 1368000    802.81735   -893.15751            0   -879.87465   -1763.5052    13.440161    13.567181    13.463008    1.8575576     2348.456    1355.7333 
 1369000    813.43138   -895.63287            0   -882.17441   -5804.4521    13.440161    13.567181    13.463008    1.9079124    2350.3198    1353.8879 
 1370000     828.0434   -893.77802            0   -880.07779   -6270.3889    13.440161    13.567181    13.463008    2.0564232    2352.1539    1352.0255 
 1371000     849.8672   -894.24738            0   -880.18607   -6240.6987    13.440161    13.567181    13.463008    2.2377941    2353.9854    1350.1616 
 1372000    787.19355   -893.55392            0   -880.52956   -2384.3982    13.440161    13.567181    13.463008    2.3539109    2355.8171    1348.2978 
 1373000    766.93837   -892.63499            0   -879.94576    -4198.745    13.440161    13.567181    13.463008    2.7145993    2357.7331    1346.4823 
 1374000    877.96064   -894.69708            0   -880.17096   -4483.3122    13.440161    13.567181    13.463008     2.169617    2359.5658    1344.6192 
 1375000    777.80006   -894.73518            0   -881.86625   -3926.0022    13.440161    13.567181    13.463008    2.2469758    2361.5087    1342.8187 
 1376000    788.42304   -891.97717            0   -878.93247   -4551.5741    13.440161    13.567181    13.463008    2.3340248    2363.3439    1340.9569 
 1377000    770.17565   -892.63611            0   -879.89332    -1065.505    13.440161    13.567181    13.463008    2.4527539    2365.1764    1339.0936 
 1378000    811.31684   -894.18724            0   -880.76376   -4661.4199    13.440161    13.567181    13.463008    1.7150103    2367.0399    1337.2479 
 1379000    823.60844   -893.47749            0   -879.85064    -2610.703    13.440161    13.567181    13.463008    2.7251699     2368.874    1335.3856 
 1380000    853.15555   -892.14173            0   -878.02602   -2100.4901    13.440161    13.567181    13.463008    2.4642714     2370.707    1333.5227 
 1381000    747.31467   -893.22042            0   -880.85587    -493.2458    13.440161    13.567181    13.463008    2.2665797    2372.5412    1331.6605 
 1382000    859.46055   -895.04091            0   -880.82088   -5331.9602    13.440161    13.567181    13.463008    1.7867895    2374.5099    1329.8737 
 1383000    909.55286   -892.77535            0   -877.72653   -3577.2196    13.440161    13.567181    13.463008    2.1680823     2376.346    1328.0125 
 1384000    739.84463   -891.99426            0   -879.75331   -1198.7333    13.440161    13.567181    13.463008    2.6777258    2378.2645    1326.1974 
 1385000    789.99001   -894.25348            0   -881.18286   -5072.4167    13.440161    13.567181    13.463008    2.7703898    2380.1168    1324.3451 
 1386000    824.93829   -892.28638            0   -878.63753   -4334.5624    13.440161    13.567181    13.463008    2.1025385    2381.9498    1322.4822 
 1387000    831.89674   -893.57971            0   -879.81573   -3223.9635    13.440161    13.567181    13.463008    2.4062922    2383.7837    1320.6199 
 1388000    813.67862     -894.628            0   -881.16544   -7027.4456    13.440161    13.567181    13.463008    2.0864878    2385.6182    1318.7579 
 1389000    827.50594   -893.23383            0    -879.5425    -4511.506    13.440161    13.567181    13.463008    3.0891742    2387.4522    1316.8957 
 1390000    956.93576   -894.06577            0   -878.23298   -6005.0191    13.440161    13.567181    13.463008    2.0911493    2389.3705    1315.0799 
 1391000     807.7831   -894.28517            0   -880.92016   -2403.1982    13.440161    13.567181    13.463008    3.5534169    2391.2045    1313.2176 
 1392000    827.40089   -894.39932            0   -880.70972   -5104.0991    13.440161    13.567181    13.463008    2.1124937    2393.0702    1311.3728 
 1393000      836.532   -892.30179            0   -878.46112   -3651.1397    13.440161    13.567181    13.463008    3.5601393    2394.9089    1309.5132 
 1394000    778.63694   -893.23637            0   -880.35359   -5077.9729    13.440161    13.567181    13.463008    2.0648331     2396.744    1307.6516 
 1395000    717.52714    -892.6968            0    -880.8251    -1960.378    13.440161    13.567181    13.463008    2.3153003    2398.5778    1305.7894 
 1396000    881.37012    -892.2853            0   -877.70276   -1145.8637    13.440161    13.567181    13.463008    2.3860084     2400.412    1303.9275 
 1397000    757.49827   -893.61121            0   -881.07817    -394.7831    13.440161    13.567181    13.463008    2.8933709     2402.244    1302.0644 
 1398000     776.0269   -893.37429            0    -880.5347   -6369.4711    13.440161    13.567181    13.463008    1.8708073    2404.0744    1300.2005 
 1399000    869.25244   -891.53731            0   -877.15527   -6315.8715    13.440161    13.567181    13.463008    2.6008512      2405.91    1298.3394 
 1400000    814.82838    -893.3757            0   -879.89412   -5110.1417    13.440161    13.567181    13.463008    1.9750008    2407.7418    1296.4763 
 1401000    805.55212   -894.64582            0   -881.31772   -6814.3503    13.440161    13.567181    13.463008    2.8919157    2409.6116    1294.6337 
 1402000    830.02699     -894.162            0   -880.42895   -5523.7524    13.440161    13.567181    13.463008    2.3305926    2411.4385    1292.7681 
 1403000    841.52223   -892.76888            0   -878.84565   -2945.5667    13.440161    13.567181    13.463008    2.1140359    2413.2715    1290.9058 
 1404000    722.24989   -893.77965            0   -881.82981      -4773.5    13.440161    13.567181    13.463008    2.4006235     2415.103    1289.0427 
 1405000    798.41759   -893.23132            0   -880.02126   -5682.1337    13.440161    13.567181    13.463008    1.9419465    2416.9918    1287.2102 
 1406000    870.46249   -892.73866            0    -878.3366    -3692.023    13.440161    13.567181    13.463008    2.9573734    2418.8267     1285.349 
 1407000    768.04473   -893.85822            0   -881.15069   -8149.6003    13.440161    13.567181    13.463008    2.7276235    2420.6628    1283.4884 
 1408000    863.33932    -895.3324            0    -881.0482   -7548.3061    13.440161    13.567181    13.463008    2.3512831    2422.4948    1281.6257 
 1409000    806.66358   -891.97746            0   -878.63097   -1681.6116    13.440161    13.567181    13.463008    2.4545438    2424.3737    1279.7878 
 1410000     776.5875   -893.36398            0   -880.51511   -5582.4762    13.440161    13.567181    13.463008     2.493361    2426.2098    1277.9273 
 1411000     785.1003   -893.69221            0   -880.70249    -4068.363    13.440161    13.567181    13.463008    2.0605169    2428.0461    1276.0669 
 1412000     940.1282   -893.29995            0   -877.74524   -5253.0776    13.440161    13.567181    13.463008     1.821701    2429.8802    1274.2055 
 1413000    788.51376   -894.18897            0   -881.14278   -4301.5149    13.440161    13.567181    13.463008    2.3703391    2431.7625    1272.3693 
 1414000    872.32173   -894.91478            0   -880.48196   -4411.1118    13.440161    13.567181    13.463008     2.764977    2433.5941    1270.5065 
 1415000    808.02217   -891.03004            0   -877.66107   -4667.5624    13.440161    13.567181    13.463008     2.472247    2435.4299     1268.646 
 1416000    819.60213   -893.74846            0    -880.1879   -4991.3593    13.440161    13.567181    13.463008    2.5581257    2437.2714    1266.7885 
 1417000    756.76351   -893.88177            0   -881.36089   -5928.3416    13.440161    13.567181    13.463008    2.2684651    2439.1227    1264.9361 
 1418000    889.02674   -894.49512            0    -879.7859    -611.1238    13.440161    13.567181    13.463008    2.4152464    2440.9778    1263.0856 
 1419000    889.30291   -894.25143            0   -879.53765   -4121.9221    13.440161    13.567181    13.463008    3.0638188    2442.8863    1261.2628 
 1420000     687.3353   -893.06421            0   -881.69204   -6667.9724    13.440161    13.567181    13.463008    2.4094655    2444.7179    1259.4001 
 1421000    812.68262   -892.96393            0   -879.51785    -3737.358    13.440161    13.567181    13.463008    3.6521234    2446.5516    1257.5386 
 1422000     799.4375   -894.34828            0   -881.12134   -5364.2816    13.440161    13.567181    13.463008    1.9741029    2448.4537    1255.7123 
 1423000    802.63831   -894.79974            0   -881.51985   -6774.8227    13.440161    13.567181    13.463008    1.8063218    2450.3013    1253.8579 
 1424000    837.24094   -893.13011            0   -879.27771    -4764.472    13.440161    13.567181    13.463008    2.7857061    2452.1572    1252.0077 
 1425000    826.47407   -894.79607            0   -881.12181   -4968.2255    13.440161    13.567181    13.463008    1.9486553    2453.9894    1250.1455 
 1426000    709.93289   -894.81377            0   -883.06772   -5102.5684    13.440161    13.567181    13.463008    2.3895099    2455.8198    1248.2825 
 1427000     773.6214   -893.10993            0   -880.31014   -5670.0161    13.440161    13.567181    13.463008    1.8196342    2457.6498    1246.4192 
 1428000    725.19088   -891.56255            0   -879.56405    681.04632    13.440161    13.567181    13.463008    1.9833707    2459.5055     1244.569 
 1429000    729.09263   -894.78468            0   -882.72162   -4333.3527    13.440161    13.567181    13.463008    2.2635014    2461.3357     1242.706 
 1430000    800.29086   -893.40685            0    -880.1658   -4038.3567    13.440161    13.567181    13.463008    3.5785352    2463.1661    1240.8431 
 1431000    850.24074   -894.13418            0   -880.06669   -4490.2775    13.440161    13.567181    13.463008    1.7184339    2464.9962      1238.98 
 1432000    696.68148   -893.67104            0   -882.14423    -3366.485    13.440161    13.567181    13.463008    2.2626563    2466.8528    1237.1304 
 1433000    746.99049   -893.12379            0   -880.76461   -4253.0272    13.440161    13.567181    13.463008    2.5713745    2468.6836    1235.2678 
 1434000    814.88041   -893.12656            0   -879.64412   -6533.7812    13.440161    13.567181    13.463008    1.8648378    2470.5683    1233.4321 
 1435000    730.65287   -894.51374            0   -882.42487   -3591.6727    13.440161    13.567181    13.463008    1.7852923    2472.3984    1231.5692 
 1436000    758.72505   -894.63593            0    -882.0826   -5617.6896    13.440161    13.567181    13.463008    1.9698474    2474.2274    1229.7058 
 1437000    743.29213   -892.44391            0   -880.14592   -2398.0399    13.440161    13.567181    13.463008    2.6343548    2476.0705    1227.8495 
 1438000     814.9607   -892.90093            0   -879.41716    -6006.583    13.440161    13.567181    13.463008    2.7330211    2477.9446    1226.0084 
 1439000    699.96967   -893.85191            0    -882.2707     -5979.74    13.440161    13.567181    13.463008    2.1192818    2479.7771    1224.1469 
 1440000    877.00612   -893.51941            0   -879.00908   -2768.6774    13.440161    13.567181    13.463008     3.171341    2481.6061    1222.2836 
 1441000    768.14481   -892.75705            0   -880.04787   -1997.7456    13.440161    13.567181    13.463008    2.4354425    2483.4956    1220.4501 
 1442000    681.69857   -893.07496            0   -881.79606   -2360.1564    13.440161    13.567181    13.463008    2.6371257    2485.3348    1218.5919 
 1443000    857.11262    -892.3316            0   -878.15041   -5064.5306    13.440161    13.567181    13.463008    2.5339441    2487.1908    1216.7419 
 1444000    819.43933   -894.35716            0   -880.79929   -4570.9835    13.440161    13.567181    13.463008    1.9329913      2489.02    1214.8788 
 1445000    810.01806   -894.19637            0   -880.79438   -3753.5082    13.440161    13.567181    13.463008    2.1040295    2490.8488    1213.0156 
 1446000     732.9815   -892.35569            0    -880.2283   -2017.0407    13.440161    13.567181    13.463008    1.8098838    2492.6816    1211.1544 
 1447000     763.2414   -893.14372            0   -880.51566    -2717.765    13.440161    13.567181    13.463008    2.2037383    2494.5853    1209.3275 
 1448000     779.7618   -894.41744            0   -881.51605   -6328.3004    13.440161    13.567181    13.463008     2.361024    2496.4147    1207.4647 
 1449000    875.72772   -893.64433            0   -879.15516   -2631.5181    13.440161    13.567181    13.463008    2.2970099    2498.2984    1205.6281 
 1450000    774.05776   -892.99374            0   -880.18672   -4167.8261    13.440161    13.567181    13.463008    4.1353929    2500.1314     1203.767 
 1451000    780.42843   -894.56476            0   -881.65234   -4496.9079    13.440161    13.567181    13.463008    2.7306523    2501.9593    1201.9035 
 1452000    749.68482    -891.7451            0   -879.34135    681.04977    13.440161    13.567181    13.463008    2.5337235    2503.7865    1200.0397 
 1453000    737.99941   -894.30817            0   -882.09775   -4787.6748    13.440161    13.567181    13.463008     2.370501    2505.7452    1198.2388 
 1454000    705.89675   -892.93102            0   -881.25174    -2784.579    13.440161    13.567181    13.463008    2.6069953    2507.5749    1196.3762 
 1455000    825.51724   -893.10798            0   -879.44955   -1203.8338    13.440161    13.567181    13.463008    2.3624235    2509.3999    1194.5114 
 1456000    754.13516   -894.78336            0   -882.30597   -5477.5784    13.440161    13.567181    13.463008    2.1112845    2511.2277     1192.648 
 1457000    718.82718   -894.39968            0   -882.50647   -5373.9652    13.440161    13.567181    13.463008    2.6097572    2513.0927    1190.8022 
 1458000    807.96864   -893.31937            0   -879.95129   -3295.1704    13.440161    13.567181    13.463008    2.0648342    2514.9198    1188.9385 
 1459000    833.54065   -893.52711            0   -879.73593    -7941.807    13.440161    13.567181    13.463008    2.1066047     2516.822    1187.1103 
 1460000    760.53831   -895.07604            0   -882.49271   -7689.1787    13.440161    13.567181    13.463008    3.3113468    2518.6492    1185.2467 
 1461000    792.86546   -893.12462            0   -880.00642    -6100.764    13.440161    13.567181    13.463008    2.5863228    2520.4769    1183.3833 
 1462000    774.47468   -893.10876            0   -880.29485   -1430.6085    13.440161    13.567181    13.463008    2.1424816    2522.3515     1181.542 
 1463000    698.44932   -894.28945            0    -882.7334   -6885.7397    13.440161    13.567181    13.463008    2.0675178    2524.2165    1179.6962 
 1464000    819.19213    -894.3657            0   -880.81192   -2754.4074    13.440161    13.567181    13.463008    2.3606616     2526.107    1177.8622 
 1465000    833.29431   -893.69344            0   -879.90634   -1847.0629    13.440161    13.567181    13.463008    2.1852538    2527.9941    1176.0265 
 1466000    740.81531   -894.53074            0   -882.27373   -4665.3283    13.440161    13.567181    13.463008    3.0295937    2529.8241    1174.1643 
 1467000    747.26964   -893.50994            0   -881.14614   -5636.8259    13.440161    13.567181    13.463008     2.092539    2531.6512    1172.3008 
 1468000    785.30188   -892.67426            0   -879.68121   -3684.6251    13.440161    13.567181    13.463008    1.8956119    2533.5737    1170.4814 
 1469000    701.41035    -893.7066            0   -882.10156   -5424.4499    13.440161    13.567181    13.463008    3.5082869    2535.4043    1168.6195 
 1470000     787.6758     -893.693            0   -880.66066   -4713.2114    13.440161    13.567181    13.463008    2.2298486    2537.2697    1166.7736 
 1471000    769.18469   -892.27036            0   -879.54397   -92.535704    13.440161    13.567181    13.463008    2.6232039    2539.0967    1164.9101 
 1472000    774.41273   -894.80625            0   -881.99336   -3123.0199    13.440161    13.567181    13.463008    2.3901519     2540.925    1163.0473 
 1473000    919.75229   -893.28008            0    -878.0625   -1013.6226    13.440161    13.567181    13.463008    2.8771035    2542.7523    1161.1841 
 1474000    771.94195   -893.40831            0    -880.6363   -5196.1284    13.440161    13.567181    13.463008    1.9971262    2544.6105    1159.3349 
 1475000    817.54685   -894.45764            0   -880.93109    -6667.805    13.440161    13.567181    13.463008    2.4121783    2546.4359    1157.4709 
 1476000    878.01741   -892.22006            0     -877.693   -2507.2534    13.440161    13.567181    13.463008    2.5064502    2548.3066    1155.6274 
 1477000    819.38421   -893.92249            0   -880.36554    -2329.107    13.440161    13.567181    13.463008    2.5013325    2550.1342    1153.7644 
 1478000    782.28073    -893.9229            0   -880.97984   -1037.6182    13.440161    13.567181    13.463008    1.9237131    2551.9633    1151.9022 
 1479000    913.63292   -893.46938            0   -878.35305   -4324.5897    13.440161    13.567181    13.463008    1.9512152    2553.7968    1150.0419 
 1480000    731.58722   -892.90799            0   -880.80366   -2287.4791    13.440161    13.567181    13.463008    3.1730897    2555.6715    1148.2003 
 1481000    818.81825   -894.56351            0   -881.01592   -5237.8001    13.440161    13.567181    13.463008    2.3867616    2557.5011    1146.3383 
 1482000    849.32562   -892.94848            0   -878.89613   -5674.0235    13.440161    13.567181    13.463008    2.0188548    2559.3362    1144.4788 
 1483000    992.38581   -893.69856            0   -877.27924   -3709.1022    13.440161    13.567181    13.463008    2.1976579    2561.2102    1142.6368 
 1484000    694.73361   -892.27452            0   -880.77995   -1810.3375    13.440161    13.567181    13.463008    3.7723627    2563.0711    1140.7889 
 1485000    787.77779   -894.24362            0   -881.20961   -5707.9736    13.440161    13.567181    13.463008    2.2239433    2564.9237    1138.9372 
 1486000    872.05481    -892.5985            0   -878.17009   -1097.1912    13.440161    13.567181    13.463008     2.170393    2566.7513    1137.0745 
 1487000    899.48055   -895.87418            0   -880.99201   -4856.7961    13.440161    13.567181    13.463008    1.6338982    2568.5793     1135.212 
 1488000    920.31647   -895.79686            0   -880.56995   -5848.0894    13.440161    13.567181    13.463008    1.9170185    2570.4054    1133.3488 
 1489000    835.11332   -892.29407            0   -878.47687   -9.5201042    13.440161    13.567181    13.463008    2.1141008    2572.2685    1131.5019 
 1490000    788.99515   -893.87518            0   -880.82102   -7030.1944    13.440161    13.567181    13.463008    2.7441883    2574.0974    1129.6399 
 1491000     844.8871   -895.32533            0   -881.34642   -7597.7042    13.440161    13.567181    13.463008    1.7164193    2575.9938    1127.8075 
 1492000    830.15348   -892.23774            0    -878.5026   -3121.1012    13.440161    13.567181    13.463008    2.2161819    2577.8239    1125.9461 
 1493000    784.42983   -892.84982            0    -879.8712   -2920.9025    13.440161    13.567181    13.463008    2.7340678    2579.6537    1124.0846 
 1494000    756.39536   -893.86068            0    -881.3459    -3700.523    13.440161    13.567181    13.463008    2.4119924    2581.4803    1122.2217 
 1495000     787.1442   -894.05482            0   -881.03129   -4374.3203    13.440161    13.567181    13.463008     2.354818    2583.3787      1120.39 
 1496000    826.86734   -892.49566            0   -878.81489   -3330.7762    13.440161    13.567181    13.463008    2.2985816    2585.2089    1118.5288 
 1497000    729.83734   -894.20609            0   -882.13071   -5195.1236    13.440161    13.567181    13.463008    2.4835664    2587.1603    1116.7199 
 1498000     860.0041   -895.03501            0   -880.80598   -4339.2615    13.440161    13.567181    13.463008    2.4097785    2588.9893     1114.858 
 1499000    826.66518   -893.28419            0   -879.60677   -1819.8581    13.440161    13.567181    13.463008    2.6448486    2590.8195    1112.9968 
 1500000    710.66861   -894.62842            0    -882.8702   -5813.1343    13.440161    13.567181    13.463008    1.9455306    2592.6519    1111.1365 
 1501000    768.31622   -893.09883            0   -880.38681   -6337.6957    13.440161    13.567181    13.463008    2.5941054    2594.6024    1109.3268 
 1502000    817.05506   -893.33162            0    -879.8132   -5807.9776    13.440161    13.567181    13.463008    2.8410939    2596.4287    1107.4639 
 1503000    658.56093   -894.08546            0   -883.18938   -7031.0859    13.440161    13.567181    13.463008    2.5108202    2598.2571    1105.6019 
 1504000    798.48743   -894.64099            0   -881.42978   -8647.4833    13.440161    13.567181    13.463008     1.973632    2600.1455    1103.7655 
 1505000     866.3942   -894.14981            0   -879.81505   -5977.8477    13.440161    13.567181    13.463008    2.5910734    2602.0258    1101.9255 
 1506000    879.77411   -893.64437            0   -879.08825   -3494.7125    13.440161    13.567181    13.463008    1.7063374    2603.8545    1100.0637 
 1507000      712.007     -893.657            0   -881.87663   -4889.1063    13.440161    13.567181    13.463008    2.0324614    2605.6838    1098.2022 
 1508000    859.18318   -893.29684            0   -879.08139   -4951.4175    13.440161    13.567181    13.463008    2.0781893    2607.6063    1096.3799 
 1509000    872.12983   -893.89463            0   -879.46498   -6565.3092    13.440161    13.567181    13.463008    2.4288062    2609.4357    1094.5185 
 1510000    774.79343   -893.81355            0   -880.99436   -3105.5393    13.440161    13.567181    13.463008    2.2056829    2611.2636    1092.6564 
 1511000    917.21736   -892.71734            0    -877.5417   -3283.2523    13.440161    13.567181    13.463008    2.5067162    2613.0944    1090.7956 
 1512000    868.06176   -894.10641            0   -879.74407   -2412.8498    13.440161    13.567181    13.463008    2.2613692    2614.9773    1088.9566 
 1513000    784.20782   -893.92144            0   -880.94649   -5727.0748    13.440161    13.567181    13.463008    3.4746168    2616.8067    1087.0952 
 1514000    909.07467    -892.7064            0   -877.66548   -3978.8134    13.440161    13.567181    13.463008     2.239013    2618.6583    1085.2431 
 1515000    800.36968   -892.86776            0    -879.6254   -4200.6689    13.440161    13.567181    13.463008    1.9302051    2620.4884    1083.3821 
 1516000    709.28676   -892.32861            0   -880.59325   -2725.0299    13.440161    13.567181    13.463008    2.3714214    2622.3163    1081.5203 
 1517000    833.10788   -893.41714            0   -879.63312   -606.72958    13.440161    13.567181    13.463008    2.1834884    2624.1472    1079.6597 
 1518000    852.23002   -892.49202            0   -878.39162   -56.983891    13.440161    13.567181    13.463008    1.9674657    2625.9985    1077.8075 
 1519000    741.82458   -893.76274            0   -881.48903   -8748.8518    13.440161    13.567181    13.463008    1.7769869    2627.8285    1075.9467 
 1520000    778.37079   -892.26967            0    -879.3913    -3764.554    13.440161    13.567181    13.463008    1.9656431    2629.7814    1074.1361 
 1521000    926.10223   -892.87708            0   -877.55444   -1342.8294    13.440161    13.567181    13.463008    1.8654117    2631.6113    1072.2751 
 1522000     719.2289   -893.31382            0   -881.41396   -6655.7603    13.440161    13.567181    13.463008    3.0633875    2633.4421    1070.4146 
 1523000    834.26417   -893.82355            0    -880.0204   -6114.9623    13.440161    13.567181    13.463008    3.5463027    2635.2973     1068.564 
 1524000    823.99424   -892.70995            0   -879.07672    -3762.659    13.440161    13.567181    13.463008    2.1769146    2637.1496    1066.7122 
 1525000    777.06324   -894.76765            0    -881.9109    -7805.751    13.440161    13.567181    13.463008    3.2754706    2638.9794    1064.8513 
 1526000    763.17104   -891.80534            0   -879.17844   -5376.7141    13.440161    13.567181    13.463008    2.7303621    2640.8097    1062.9907 
 1527000    783.45393    -894.1781            0   -881.21562   -6116.7124    13.440161    13.567181    13.463008    2.1688351    2642.6886    1061.1496 
 1528000    702.66175   -893.46884            0   -881.84309    -1980.011    13.440161    13.567181    13.463008    1.7714471    2644.5186     1059.289 
 1529000    822.68349   -893.26741            0   -879.65586   -5479.8121    13.440161    13.567181    13.463008     2.266262     2646.351    1057.4293 
 1530000    827.69723   -894.65811            0   -880.96362   -7044.5855    13.440161    13.567181    13.463008    1.6862086    2648.1856    1055.5705 
 1531000    743.79842   -894.81781            0   -882.51144   -4097.7681    13.440161    13.567181    13.463008    2.2237703    2650.1034    1053.7448 
 1532000    760.52021    -892.8824            0   -880.29936   -7025.9729    13.440161    13.567181    13.463008    2.5061595    2651.9334    1051.8842 
 1533000    832.15226   -893.16826            0   -879.40005   -1563.3343    13.440161    13.567181    13.463008    2.5442962    2653.7945    1050.0359 
 1534000    854.55388   -895.35293            0   -881.21408   -8366.9221    13.440161    13.567181    13.463008     1.679885    2655.6251    1048.1756 
 1535000    802.26271   -894.26422            0   -880.99054   -5297.8003    13.440161    13.567181    13.463008    3.4546573     2657.494    1046.3304 
 1536000    862.38067   -892.91968            0   -878.65133   -6931.0099    13.440161    13.567181    13.463008     2.890328    2659.3261    1044.4707 
 1537000    811.38293   -894.01602            0   -880.59145   -5033.2368    13.440161    13.567181    13.463008    2.1581343    2661.1714    1042.6162 
 1538000    894.42962   -895.19223            0   -880.39362   -6505.5947    13.440161    13.567181    13.463008    1.7657634    2663.0048    1040.7571 
 1539000    878.10532   -893.79929            0   -879.27078   -1390.9133    13.440161    13.567181    13.463008    2.0233863    2664.8503    1038.9027 
 1540000     797.6784   -892.47702            0   -879.27919   -2938.0752    13.440161    13.567181    13.463008    2.9506301    2666.6935    1037.0475 
 1541000    734.94191   -893.65244            0   -881.49261   -3179.1136    13.440161    13.567181    13.463008    2.0367711    2668.5368    1035.1923 
 1542000    855.34277   -892.78457            0   -878.63267    -5480.704    13.440161    13.567181    13.463008    2.4537615    2670.3704    1033.3333 
 1543000    917.57855   -892.05637            0   -876.87476   -3942.6179    13.440161    13.567181    13.463008    2.3053802    2672.2075    1031.4758 
 1544000    779.30879   -894.23838            0   -881.34448   -6273.1349    13.440161    13.567181    13.463008    1.9572103    2674.0397    1029.6164 
 1545000    829.55799   -894.07155            0   -880.34626   -5747.5335    13.440161    13.567181    13.463008    1.8915458     2675.876    1027.7586 
 1546000    867.95635   -893.16281            0   -878.80221   -705.37905    13.440161    13.567181    13.463008    2.4304064    2677.7274    1025.9066 
 1547000    769.47648   -894.96054            0   -882.22932   -7763.6539    13.440161    13.567181    13.463008    1.6179233     2679.562    1024.0482 
 1548000    854.79584   -893.80581            0   -879.66296   -4349.9691    13.440161    13.567181    13.463008    2.6977343    2681.3933    1022.1886 
 1549000    838.27233   -893.87865            0   -880.00918   -3413.6679    13.440161    13.567181    13.463008    2.4523269    2683.2228    1020.3284 
 1550000    818.84401    -894.4248            0   -880.87679   -3695.4576    13.440161    13.567181    13.463008    2.7630898    2685.0559    1018.4695 
 1551000    798.98311   -894.72192            0    -881.5025   -8454.0146    13.440161    13.567181    13.463008    1.9122873     2686.891    1016.6114 
 1552000    851.44321   -893.00459            0   -878.91721   -4995.5398    13.440161    13.567181    13.463008    2.6841049    2688.7279    1014.7541 
 1553000    711.67216   -893.53415            0   -881.75933   -4258.8168    13.440161    13.567181    13.463008    2.5008561    2690.5588    1012.8945 
 1554000    783.42509   -894.26599            0   -881.30399   -4195.6626    13.440161    13.567181    13.463008    2.3259848    2692.3935    1011.0364 
 1555000    829.59513   -893.67267            0   -879.94677   -4029.3419    13.440161    13.567181    13.463008    2.5618834    2694.2217    1009.1758 
 1556000    831.20544   -894.43477            0   -880.68223    -5111.756    13.440161    13.567181    13.463008    2.2551462    2696.0657    1007.3212 
 1557000    712.41921   -895.33257            0   -883.54538   -7551.6593    13.440161    13.567181    13.463008    1.9951612    2697.8971     1005.462 
 1558000    823.30608   -893.87499            0   -880.25314   -8134.7581    13.440161    13.567181    13.463008    2.4597589    2699.7415    1003.6076 
 1559000    892.10306   -894.33116            0   -879.57105   -3373.0568    13.440161    13.567181    13.463008    2.0543398    2701.5803    1001.7512 
 1560000    767.82485   -895.19546            0   -882.49157   -7194.7958    13.440161    13.567181    13.463008    1.9713007     2703.428    999.89803 
 1561000    830.67938    -893.5924            0   -879.84856    -2734.581    13.440161    13.567181    13.463008    2.4831753    2705.2575    998.03817 
 1562000    836.42495   -893.80548            0   -879.96658   -4797.7397    13.440161    13.567181    13.463008    2.2869438    2707.1054    996.18515 
 1563000    697.32666   -893.79301            0   -882.25553   -3585.1688    13.440161    13.567181    13.463008    2.0472076    2708.9398    994.32717 
 1564000    785.72366   -893.96869            0   -880.96866   -3552.5906    13.440161    13.567181    13.463008    1.8803238     2710.785     992.4732 
 1565000    742.79312   -891.44456            0   -879.15483   -1118.8124    13.440161    13.567181    13.463008    1.7280656    2712.6217     990.6161 
 1566000    651.39888    -892.9918            0   -882.21421    -3889.979    13.440161    13.567181    13.463008    2.2426094    2714.4711     988.7637 
 1567000    732.06245   -893.17106            0   -881.05887   -4922.4011    13.440161    13.567181    13.463008     2.055414    2716.3114    986.90796 
 1568000    796.31371   -893.12965            0    -879.9544   -7088.6484    13.440161    13.567181    13.463008    1.8942389    2718.1739    985.06031 
 1569000    752.87023   -891.73275            0   -879.27629   -2308.8846    13.440161    13.567181    13.463008    2.9626162    2720.0179    983.20592 
 1570000    781.55913   -895.19517            0   -882.26404   -5869.2329    13.440161    13.567181    13.463008    2.2017963    2721.8643    981.35244 
 1571000    811.06923   -892.84938            0      -879.43   -2343.8637    13.440161    13.567181    13.463008    3.5934953    2723.6996    979.49494 
 1572000    803.60137   -893.11994            0   -879.82412   -4791.4942    13.440161    13.567181    13.463008    3.4191759    2725.5289    977.63536 
 1573000    718.53899   -893.67757            0   -881.78912   -4414.3846    13.440161    13.567181    13.463008    1.7475994    2727.3646     975.7781 
 1574000    788.86623   -895.08227            0   -882.03024   -3857.0156    13.440161    13.567181    13.463008    2.4213614    2729.1953     973.9191 
 1575000    850.86652   -893.28348            0   -879.20564   -3505.4521    13.440161    13.567181    13.463008    2.0345228    2731.0403    972.06519 
 1576000    726.74769   -893.92557            0   -881.90132   -4207.3284    13.440161    13.567181    13.463008    2.2278535    2732.8717    970.20647 
 1577000    805.11804   -895.17974            0   -881.85882    -6264.355    13.440161    13.567181    13.463008    2.4120984    2734.7185    968.35327 
 1578000    788.97421   -893.24744            0   -880.19363   -4215.9713    13.440161    13.567181    13.463008    2.9562487    2736.5518    966.49528 
 1579000    855.37812   -892.83733            0   -878.68484   -3661.9632    13.440161    13.567181    13.463008    1.9601059    2738.4082     964.6455 
 1580000    783.53596   -893.58032            0   -880.61648    -6884.801    13.440161    13.567181    13.463008    2.1241865    2740.2434    962.78821 
 1581000    808.01146   -894.39284            0   -881.02405   -1276.2762    13.440161    13.567181    13.463008    2.1267743    2742.1134    960.94319 
 1582000    880.21409   -892.84513            0   -878.28173    427.00442    13.440161    13.567181    13.463008    2.5676927    2743.9456    959.08491 
 1583000    824.26711    -893.9376            0   -880.29985   -4900.0727    13.440161    13.567181    13.463008    1.7798478     2745.795    957.23265 
 1584000    722.43674   -892.77623            0   -880.82329   -4722.3954    13.440161    13.567181    13.463008    2.1782842    2747.6286     955.3749 
 1585000      884.418   -892.25287            0   -877.61991   -2309.5634    13.440161    13.567181    13.463008    1.8948961    2749.4632    953.51753 
 1586000    773.80001   -893.62561            0   -880.82286   -3475.7647    13.440161    13.567181    13.463008    2.3065228    2751.3038     951.6623 
 1587000    896.15229   -895.54622            0   -880.71911   -5012.5513    13.440161    13.567181    13.463008    2.3802357    2753.1676    949.81504 
 1588000    836.86041   -890.95073            0   -877.10463   -1069.6515    13.440161    13.567181    13.463008    2.4543341    2755.0241    947.96528 
 1589000    849.11577   -894.12422            0   -880.07535   -6583.3754    13.440161    13.567181    13.463008    1.9612992    2756.9051    946.12392 
 1590000    762.14093   -893.51337            0   -880.90352   -4460.1233    13.440161    13.567181    13.463008    2.7050695    2758.7928    944.28478 
 1591000    826.45691   -893.53103            0   -879.85705   -4139.0983    13.440161    13.567181    13.463008    2.5978479    2760.6653    942.44042 
 1592000    929.46012   -894.18183            0   -878.80364    -4314.687    13.440161    13.567181    13.463008    2.5390915    2762.5038     940.5844 
 1593000    741.16276   -893.93031            0   -881.66755   -3997.1462    13.440161    13.567181    13.463008    2.2095457    2764.3526    938.73192 
 1594000     879.0475   -894.10611            0   -879.56201    -4538.558    13.440161    13.567181    13.463008    2.1608887    2766.2231     936.8868 
 1595000    906.81083   -893.04201            0   -878.03855   -4924.4078    13.440161    13.567181    13.463008    2.0816371    2768.1083    935.04663 
 1596000    805.13324   -894.18253            0   -880.86136   -2735.6396    13.440161    13.567181    13.463008    2.0464075     2769.954    933.19305 
 1597000    777.16115   -893.33709            0   -880.47873   -6977.9896    13.440161    13.567181    13.463008    2.2963036    2771.7849    931.33453 
 1598000    892.77045   -893.08122            0   -878.31007   -1166.8798    13.440161    13.567181    13.463008    2.7151807     2773.736    929.51635 
 1599000    800.17726   -893.58864            0   -880.34947   -6705.1791    13.440161    13.567181    13.463008    2.0416935    2775.5718    927.65943 
 1600000     790.3994   -893.87977            0   -880.80237   -5635.0643    13.440161    13.567181    13.463008    2.8765714    2777.4132    925.80439 
 1601000    901.66171   -892.33228            0   -877.41402   -1218.1848    13.440161    13.567181    13.463008    2.5514716    2779.2416    923.94507 
 1602000    799.89656   -893.86661            0   -880.63208   -5033.3346    13.440161    13.567181    13.463008    2.1052673    2781.1246     922.1039 
 1603000    773.64621   -893.53337            0   -880.73316   -3817.7801    13.440161    13.567181    13.463008    1.9289414    2782.9537    920.24484 
 1604000    849.30724   -891.53072            0   -877.47867   -2527.2182    13.440161    13.567181    13.463008    2.8798105    2784.8444    918.40614 
 1605000    701.00138   -892.29959            0   -880.70131   -4157.5952    13.440161    13.567181    13.463008    2.3643348    2786.6777    916.54849 
 1606000    761.98508    -892.8284            0   -880.22113   -4625.6988    13.440161    13.567181    13.463008    2.8269399    2788.5164    914.69264 
 1607000    910.89783   -892.58499            0   -877.51391     -1143.58    13.440161    13.567181    13.463008    2.3914902    2790.3521    912.83582 
 1608000    758.60641    -893.3018            0   -880.75043   -3820.6913    13.440161    13.567181    13.463008    2.2227435    2792.2242    910.99093 
 1609000    706.22746   -892.55065            0   -880.86591   -4994.3635    13.440161    13.567181    13.463008    2.2025644    2794.0552    909.13262 
 1610000     880.3209   -892.36426            0   -877.79908   -3873.8764    13.440161    13.567181    13.463008    2.6686845    2795.9195    907.28514 
 1611000    702.85992   -893.36018            0   -881.73115   -4700.3794    13.440161    13.567181    13.463008    2.0472938    2797.7519    905.42733 
 1612000    810.37579   -893.17712            0   -879.76921   -4168.2366    13.440161    13.567181    13.463008    2.2468298    2799.5831    903.56914 
 1613000    894.95007   -894.22842            0    -879.4212    -5228.658    13.440161    13.567181    13.463008    2.3594728    2801.4275    901.71528 
 1614000    739.71959   -894.29185            0   -882.05297   -5209.4629    13.440161    13.567181    13.463008    2.2885151    2803.2596    899.85743 
 1615000    847.58741   -893.48822            0   -879.46463   -2711.8979    13.440161    13.567181    13.463008    2.3773333      2805.09    897.99912 
 1616000    815.25205   -893.69018            0   -880.20159   -6837.2523    13.440161    13.567181    13.463008     2.242964    2806.9216     896.1412 
 1617000    797.54484   -893.73551            0    -880.5399   -3222.4609    13.440161    13.567181    13.463008    1.7497261    2808.7515    894.28278 
 1618000      766.499   -892.87769            0   -880.19574    -2655.351    13.440161    13.567181    13.463008    3.2423059     2810.585    892.42553 
 1619000    785.32641   -892.97091            0   -879.97745   -3232.1092    13.440161    13.567181    13.463008    2.1054161    2812.4159    890.56752 
 1620000    826.25897   -894.44979            0   -880.77908   -5932.1739    13.440161    13.567181    13.463008    2.6594324    2814.2455     888.7091 
 1621000    753.62615   -893.54437            0    -881.0754   -5360.3033    13.440161    13.567181    13.463008    2.2798375    2816.0782    886.85172 
 1622000    895.33192   -893.16231            0   -878.34877    -1635.674    13.440161    13.567181    13.463008    2.0758841     2817.912    884.99471 
 1623000    766.23918   -894.44712            0   -881.76947    -2791.998    13.440161    13.567181    13.463008    2.3875738    2819.7452    883.13753 
 1624000    792.88643   -893.42618            0   -880.30764   -5530.2812    13.440161    13.567181    13.463008    2.3520036    2821.5744    881.27914 
 1625000    902.20492    -893.9872            0   -879.05995   -5971.3766    13.440161    13.567181    13.463008    2.0524177    2823.4045    879.42108 
 1626000    769.99587   -895.25733            0   -882.51752    -4534.182    13.440161    13.567181    13.463008    2.0476054    2825.2364    877.56361 
 1627000      870.933   -894.10236            0   -879.69252   -4137.2004    13.440161    13.567181    13.463008     2.074485    2827.0673    875.70586 
 1628000    872.32285    -894.2729            0   -879.84005   -6490.5948    13.440161    13.567181    13.463008     3.039325    2828.8981    873.84811 
 1629000    681.87401   -894.68805            0   -883.40624   -6148.4864    13.440161    13.567181    13.463008    2.5813551    2830.7307    871.99096 
 1630000    725.01359   -894.20343            0   -882.20786    -2651.645    13.440161    13.567181    13.463008    2.0388365    2832.5624    870.13355 
 1631000    895.49566   -894.60438            0   -879.78814   -5518.9052    13.440161    13.567181    13.463008    2.2925958    2834.4187    868.28371 
 1632000    745.48796   -892.63795            0   -880.30363    -2476.646    13.440161    13.567181    13.463008    2.3961786    2836.2631    866.43023 
 1633000    794.03132   -895.35077            0   -882.21329   -6305.1914    13.440161    13.567181    13.463008    2.1524757    2838.1112    864.57791 
 1634000    844.94276     -893.634            0   -879.65417   -2979.5943    13.440161    13.567181    13.463008    2.2871941    2839.9585    862.72535 
 1635000    798.55913   -893.74855            0   -880.53615   -5207.4669    13.440161    13.567181    13.463008    1.9554488    2841.7886    860.86756 
 1636000    760.02749   -895.92036            0   -883.34547   -5809.5845    13.440161    13.567181    13.463008    1.8109763    2843.6202    859.01026 
 1637000    814.82196   -893.40984            0   -879.92837   -610.31245    13.440161    13.567181    13.463008    1.7529107    2845.4487     857.1521 
 1638000    802.64711   -893.35952            0   -880.07948    -1569.401    13.440161    13.567181    13.463008     2.207399    2847.2824    855.29549 
 1639000    726.30155   -894.55062            0   -882.53374   -5709.0233    13.440161    13.567181    13.463008    1.6495986    2849.1116    853.43759 
 1640000    825.73731   -892.99314            0   -879.33107   -3423.4572    13.440161    13.567181    13.463008    1.9025649    2850.9421     851.5801 
 1641000    797.73232   -893.11824            0   -879.91952   -6215.1656    13.440161    13.567181    13.463008    2.1884245    2852.7724     849.7226 
 1642000     793.3922   -895.09934            0   -881.97243   -5560.0247    13.440161    13.567181    13.463008    1.9051447     2854.604    847.86551 
 1643000    853.87067   -891.90925            0   -877.78171    253.24145    13.440161    13.567181    13.463008     2.612532    2856.4438     846.0109 
 1644000    793.30347    -893.6161            0   -880.49066    -6808.901    13.440161    13.567181    13.463008    2.4655252    2858.2804    844.15535 
 1645000     703.8274   -893.27223            0   -881.62719   -4300.8125    13.440161    13.567181    13.463008    2.3058282    2860.1194    842.30052 
 1646000    898.29065   -893.20399            0   -878.34151   -3834.7892    13.440161    13.567181    13.463008    2.2841344    2861.9567    840.44526 
 1647000    775.76062   -892.90911            0   -880.07392    -6853.865    13.440161    13.567181    13.463008     2.484577    2863.7874    838.58803 
 1648000    797.25863    -894.0539            0   -880.86302   -2052.4945    13.440161    13.567181    13.463008    2.8126609    2865.6182    836.73088 
 1649000    755.85804   -891.92789            0   -879.42199   -4797.0596    13.440161    13.567181    13.463008    2.0897197    2867.4495    834.87392 
 1650000    835.13601   -893.23256            0   -879.41498   -3251.5256    13.440161    13.567181    13.463008    1.9966684    2869.2936    833.02072 
 1651000    781.69702   -894.61126            0   -881.67785   -8290.8093    13.440161    13.567181    13.463008     1.881578    2871.1234    831.16339 
 1652000    844.19886    -893.5748            0   -879.60727   -4330.6052    13.440161    13.567181    13.463008    2.3372824    2872.9528    829.30597 
 1653000    788.16991   -892.65211            0   -879.61161    -4640.707    13.440161    13.567181    13.463008    2.2628945    2874.7832    827.44887 
 1654000    817.36772   -894.43554            0   -880.91194   -3743.1939    13.440161    13.567181    13.463008    1.8503804    2876.6161    825.59252 
 1655000     764.6934   -894.47844            0   -881.82636   -5252.8736    13.440161    13.567181    13.463008    2.1025295    2878.4532     823.7374 
 1656000    885.85029   -893.51445            0   -878.85779   -4244.2575    13.440161    13.567181    13.463008    2.1486354    2880.3174    821.89005 
 1657000    771.68722   -894.31261            0   -881.54482   -6742.9131    13.440161    13.567181    13.463008    1.7186196    2882.1617      820.037 
 1658000    785.13992    -894.4632            0   -881.47282   -4081.9984    13.440161    13.567181    13.463008    2.5131751    2884.0087    818.18474 
 1659000    718.95731   -891.54847            0    -879.6531   -354.52649    13.440161    13.567181    13.463008    2.3345892    2885.8495    816.33075 
 1660000    699.21347   -892.70796            0   -881.13926   -6451.1438    13.440161    13.567181    13.463008    1.8091492    2887.6889    814.47636 
 1661000    737.48754   -893.88452            0   -881.68257   -7922.9747    13.440161    13.567181    13.463008    1.8492249    2889.5168    812.61875 
 1662000    851.42198   -893.28166            0   -879.19463   -5527.5112    13.440161    13.567181    13.463008      2.52562    2891.3453    810.76136 
 1663000    819.55833   -894.45331            0   -880.89347   -4253.0772    13.440161    13.567181    13.463008    2.0893072    2893.1754    808.90445 
 1664000    656.64857   -894.45381            0   -883.58937   -3376.9268    13.440161    13.567181    13.463008    2.1301563    2895.0042     807.0472 
 1665000    771.52572   -893.62988            0   -880.86476     -1670.42    13.440161    13.567181    13.463008    2.2081641    2896.8332    805.19005 
 1666000    776.89034   -892.02952            0   -879.17564   -1198.1042    13.440161    13.567181    13.463008     2.318228    2898.6628    803.33311 
 1667000    785.85101    -894.6812            0   -881.67906   -5549.5925    13.440161    13.567181    13.463008    2.1918139    2900.4947    801.47683 
 1668000    898.90999   -895.82781            0   -880.95508   -4970.5274    13.440161    13.567181    13.463008    2.0754357    2902.3233    799.61968 
 1669000    812.89917   -893.26132            0   -879.81166   -3970.0293    13.440161    13.567181    13.463008     2.410036     2904.153    797.76286 
 1670000    797.44871   -894.14807            0   -880.95404   -7392.9399    13.440161    13.567181    13.463008     2.404603    2905.9826    795.90607 
 1671000    711.60821   -893.90503            0   -882.13126   -4759.3994    13.440161    13.567181    13.463008     2.550899    2907.8124    794.04936 
 1672000    776.70703   -891.76323            0   -878.91238   -1771.5079    13.440161    13.567181    13.463008    2.2881067    2909.6439    792.19313 
 1673000    776.43768   -893.79701            0   -880.95061   -3026.1819    13.440161    13.567181    13.463008     3.755388    2911.4736    790.33645 
 1674000    733.03739   -894.43421            0   -882.30589   -5399.7551    13.440161    13.567181    13.463008    1.6872242    2913.3034    788.47984 
 1675000    851.97762   -892.89666            0   -878.80044   -810.22308    13.440161    13.567181    13.463008    3.3480677    2915.1334    786.62331 
 1676000     811.0909   -894.18107            0   -880.76133   -7119.4717    13.440161    13.567181    13.463008    2.3219787    2916.9643    784.76704 
 1677000    735.87028   -893.39116            0   -881.21597   -3118.4957    13.440161    13.567181    13.463008    2.1073908    2918.7937    782.91042 
 1678000    885.42163   -892.52497            0   -877.87541   -1846.0667    13.440161    13.567181    13.463008    2.2575008     2920.624    781.05408 
 1679000    780.10118   -893.72536            0   -880.81835   -4609.9588    13.440161    13.567181    13.463008    2.1919425    2922.4519    779.19711 
 1680000    790.73812   -893.93946            0   -880.85646   -5261.9243    13.440161    13.567181    13.463008    2.3455767    2924.2803    777.34034 
 1681000    830.87327   -891.75139            0   -878.00435   -2119.9193    13.440161    13.567181    13.463008    2.5387546    2926.1103      775.484 
 1682000    821.66325   -894.19486            0    -880.6002   -5594.0925    13.440161    13.567181    13.463008    1.9193535    2927.9409    773.62788 
 1683000    797.03888   -893.75993            0   -880.57268   -4323.3996    13.440161    13.567181    13.463008    2.5084463    2929.7708    771.77158 
 1684000    910.62194   -892.33502            0   -877.26851    449.68591    13.440161    13.567181    13.463008    2.5794005    2931.6013     769.9155 
 1685000    854.68857   -894.58879            0   -880.44771   -5664.3816    13.440161    13.567181    13.463008    2.3040866    2933.4308    768.05916 
 1686000    755.47158   -893.02467            0   -880.52517   -6024.5861    13.440161    13.567181    13.463008    2.5916447    2935.2632    766.20364 
 1687000    862.10863   -891.75428            0   -877.49043   -5017.3094    13.440161    13.567181    13.463008     2.022602    2937.0926    764.34735 
 1688000    801.99706   -893.91305            0   -880.64377     -3630.45    13.440161    13.567181    13.463008    2.1143094    2938.9246    762.49177 
 1689000    783.39759   -893.56308            0   -880.60153   -4515.1305    13.440161    13.567181    13.463008    2.3796014    2940.7544    760.63565 
 1690000    806.68707   -891.26972            0   -877.92284   -466.42722    13.440161    13.567181    13.463008    3.1488318    2942.5866     758.7802 
 1691000    748.26114   -893.17982            0   -880.79962   -7405.6038    13.440161    13.567181    13.463008    2.3297698    2944.4158      756.924 
 1692000    770.43074   -893.71201            0   -880.96501   -4643.3672    13.440161    13.567181    13.463008    2.0954066    2946.2434     755.0674 
 1693000    1005.9729   -894.77682            0    -878.1327   -3651.0128    13.440161    13.567181    13.463008    1.7473041    2948.0762    753.21219 
 1694000    761.56392   -894.64921            0   -882.04891   -8912.2129    13.440161    13.567181    13.463008    2.5866835    2949.9065    751.35635 
 1695000    853.43063   -893.88921            0   -879.76895   -4613.4966    13.440161    13.567181    13.463008    3.0018581    2951.7351    749.50013 
 1696000    811.35539   -893.39555            0   -879.97144   -1446.4159    13.440161    13.567181    13.463008    3.0311433     2953.566    747.64452 
 1697000    718.23873   -894.08804            0   -882.20457   -4929.5099    13.440161    13.567181    13.463008     2.164214     2955.393    745.78797 
 1698000    871.68587   -894.23449            0   -879.81218   -5842.3156    13.440161    13.567181    13.463008    1.6634814    2957.2229    743.93216 
 1699000    781.95546   -893.43611            0   -880.49842   -4537.2701    13.440161    13.567181    13.463008    2.1209914    2959.0544    742.07681 
 1700000     734.5659   -895.07303            0   -882.91942   -7271.7788    13.440161    13.567181    13.463008    2.2790135    2960.8849    740.22122 
 1701000     785.8311    -893.2691            0   -880.26729   -2611.9494    13.440161    13.567181    13.463008    2.1488872    2962.7158    738.36577 
 1702000     750.2989   -892.57224            0   -880.15832   -2517.6628    13.440161    13.567181    13.463008    2.2783602    2964.5449    736.50991 
 1703000    753.85383   -895.11996            0   -882.64723   -3692.1769    13.440161    13.567181    13.463008    2.1021444    2966.3737      734.654 
 1704000    777.77164   -892.37702            0   -879.50856   -1650.9563    13.440161    13.567181    13.463008    1.9051591    2968.2047    732.79867 
 1705000    787.11584   -893.16519            0   -880.14212   -4957.4331    13.440161    13.567181    13.463008     2.933181    2970.0397    730.94435 
 1706000    702.35142   -895.09511            0   -883.47449   -6718.8531    13.440161    13.567181    13.463008    2.1976268    2971.8699    729.08887 
 1707000      779.607   -893.12083            0     -880.222   -4026.8724    13.440161    13.567181    13.463008     2.049159    2973.6994    727.23327 
 1708000    862.21217   -893.95091            0   -879.68535   -2940.6084    13.440161    13.567181    13.463008    2.4943942    2975.5304    725.37805 
 1709000     761.6321   -894.41653            0    -881.8151   -9043.3837    13.440161    13.567181    13.463008    2.0179168    2977.3615    723.52289 
 1710000    808.74524   -892.60641            0   -879.22548   -3944.9186    13.440161    13.567181    13.463008    2.1671149    2979.1927     721.6678 
 1711000    782.28014   -892.81467            0   -879.87161   -4884.7623    13.440161    13.567181    13.463008    1.7942949    2981.0246     719.8129 
 1712000     774.7517   -894.24218            0   -881.42369   -6782.0681    13.440161    13.567181    13.463008    2.6767062    2982.8546    717.95757 
 1713000    789.73642   -893.37151            0   -880.30509   -2033.1834    13.440161    13.567181    13.463008    2.8930474    2984.7126    716.10897 
 1714000    733.68028   -891.02748            0   -878.88852    731.76577    13.440161    13.567181    13.463008    2.5248653    2986.5722    714.26077 
 1715000    768.18185   -892.57881            0   -879.86901    346.35762    13.440161    13.567181    13.463008    2.0605933    2988.4031    712.40569 
 1716000    787.64792   -894.52201            0   -881.49014   -6714.8752    13.440161    13.567181    13.463008    2.3273169    2990.2343    710.55072 
 1717000    913.05659   -893.06582            0   -877.95903   -1862.4255    13.440161    13.567181    13.463008    2.4759834    2992.0685    708.69649 
 1718000    822.29592    -893.5187            0   -879.91357   -3279.4684    13.440161    13.567181    13.463008    1.8259472     2993.901    706.84189 
 1719000     851.4191    -894.7129            0   -880.62591   -2376.6185    13.440161    13.567181    13.463008    2.5551805    2995.7328    704.98716 
 1720000    846.11116   -891.36604            0   -877.36688   -4181.6185    13.440161    13.567181    13.463008    2.7047417    2997.5663    703.13284 
 1721000    860.56317   -894.85745            0   -880.61918   -905.56895    13.440161    13.567181    13.463008    2.0769036    2999.3971    701.27792 
 1722000    838.20673   -894.27686            0   -880.40848   -2809.2594    13.440161    13.567181    13.463008    1.9740283     3001.228    699.42305 
 1723000    865.54076   -891.27176            0   -876.95113   -1300.8287    13.440161    13.567181    13.463008    2.2138018    3003.0624    697.56902 
 1724000    794.54762   -893.51069            0   -880.36466   -4252.2387    13.440161    13.567181    13.463008    1.9952848    3004.8967    695.71501 
 1725000      811.695   -893.25734            0    -879.8276   -3291.4187    13.440161    13.567181    13.463008     2.336778    3006.7281    693.86032 
 1726000    851.29934   -892.52446            0   -878.43946   -2977.9715    13.440161    13.567181    13.463008    2.9386261    3008.5613     692.0061 
 1727000    724.83457   -893.13911            0   -881.14651   -2800.7004    13.440161    13.567181    13.463008    2.2910223    3010.3938    690.15173 
 1728000    813.38699   -894.16613            0    -880.7084    -6059.419    13.440161    13.567181    13.463008    1.7833997    3012.2274    688.29767 
 1729000    940.45485   -893.85362            0   -878.29351   -753.18618    13.440161    13.567181    13.463008    2.1672139    3014.0591    686.44317 
 1730000    816.60206   -894.02924            0   -880.51832   -5374.7928    13.440161    13.567181    13.463008    3.1341473    3015.8903     684.5886 
 1731000    778.38424   -893.46765            0   -880.58905   -2870.9998    13.440161    13.567181    13.463008    2.1218033    3017.7225    682.73428 
 1732000    814.87249   -891.48842            0   -878.00611   -5237.0744    13.440161    13.567181    13.463008    2.2155016    3019.5532    680.87964 
 1733000    784.35766   -893.73329            0   -880.75586   -4458.7337    13.440161    13.567181    13.463008    2.0016352    3021.3862    679.02557 
 1734000    791.27267   -893.06785            0   -879.97601   -1174.9158    13.440161    13.567181    13.463008    1.7054445    3023.2211    677.17191 
 1735000    886.34371   -890.99156            0   -876.32674   -3276.1394    13.440161    13.567181    13.463008    2.8714337    3025.0555    675.31819 
 1736000    719.92581   -891.60303            0   -879.69164   -3091.8786    13.440161    13.567181    13.463008    2.2827685    3026.8885    673.46418 
 1737000    762.03257   -893.58348            0   -880.97542   -6119.5436    13.440161    13.567181    13.463008     2.123418    3028.7207    671.61004 
 1738000    815.30014   -892.21217            0   -878.72279   -5658.1091    13.440161    13.567181    13.463008    2.5702159    3030.5534    669.75601 
 1739000    801.97905   -892.96395            0   -879.69496   -2512.8399    13.440161    13.567181    13.463008    2.1487728    3032.3858    667.90194 
 1740000    762.70049    -893.4085            0    -880.7894   -2824.9354    13.440161    13.567181    13.463008    2.1017467    3034.2173    666.04769 
 1741000    850.33197   -892.94456            0   -878.87557   -1947.9296    13.440161    13.567181    13.463008    2.8949232    3036.0496    664.19367 
 1742000     870.0574    -891.7933            0   -877.39794   -4958.8078    13.440161    13.567181    13.463008    1.7240921    3037.8832    662.33994 
 1743000    733.76397    -893.2364            0   -881.09606   -5406.2583    13.440161    13.567181    13.463008    2.7426754    3039.7163    660.48614 
 1744000     816.2241   -893.38493            0   -879.88026   -5616.2369    13.440161    13.567181    13.463008    1.7988984    3041.5466    658.63173 
 1745000    872.12481   -892.06352            0   -877.63395    3056.1686    13.440161    13.567181    13.463008    2.1915404    3043.3778    656.77757 
 1746000    853.51643   -895.47511            0   -881.35343   -4808.0877    13.440161    13.567181    13.463008    1.5960518    3045.2096    654.92358 
 1747000     835.1936   -893.32559            0   -879.50706   -4449.1393    13.440161    13.567181    13.463008    2.0421084    3047.0406    653.06942 
 1748000    830.66501   -892.96099            0   -879.21739   -1751.3507    13.440161    13.567181    13.463008    3.1028179    3048.8727    651.21552 
 1749000    736.35214   -893.98219            0   -881.79903   -4020.1441    13.440161    13.567181    13.463008    1.8044244    3050.7034    649.36137 
 1750000     815.6065   -892.62121            0   -879.12675   -2049.0213    13.440161    13.567181    13.463008    2.3632296    3052.5338    647.50716 
 1751000    764.18137   -893.68178            0   -881.03817   -3947.3069    13.440161    13.567181    13.463008      2.40491    3054.3649    645.65315 
 1752000    720.54129   -894.98592            0   -883.06435   -5464.4524    13.440161    13.567181    13.463008    2.7320819    3056.1938    643.79869 
 1753000    862.31721   -893.97608            0   -879.70879   -3664.6228    13.440161    13.567181    13.463008    3.4185882     3058.027    641.94517 
 1754000    834.04451   -893.88792            0   -880.08841   -1313.3941    13.440161    13.567181    13.463008    2.8269357    3059.8605    640.09175 
 1755000    691.81011    -893.9621            0   -882.51589   -6012.3515    13.440161    13.567181    13.463008    1.7764839     3061.692    638.23792 
 1756000    796.24898   -893.26674            0   -880.09257   -5698.6693    13.440161    13.567181    13.463008    2.9880183    3063.5228    636.38397 
 1757000    834.57747   -893.90248            0   -880.09414   -2291.2195    13.440161    13.567181    13.463008     2.177365    3065.3544     634.5302 
 1758000     743.0115   -894.02768            0   -881.73434    -5526.306    13.440161    13.567181    13.463008    2.5245497    3067.1828    632.67583 
 1759000    734.54898   -892.53572            0   -880.38239   -3028.9287    13.440161    13.567181    13.463008    3.5731857    3069.0104    630.82131 
 1760000    814.83578   -892.63368            0   -879.15198    -1242.788    13.440161    13.567181    13.463008    2.8169446    3070.8405    628.96733 
 1761000    823.93597   -895.52246            0    -881.8902   -5250.9584    13.440161    13.567181    13.463008    1.9545769     3072.672    627.11367 
 1762000    739.69257   -894.81728            0   -882.57885     -6455.33    13.440161    13.567181    13.463008    1.7206593       3074.5    625.25933 
 1763000    843.47833   -893.11562            0   -879.16002   -2743.1436    13.440161    13.567181    13.463008    3.4293456    3076.3303    623.40548 
 1764000    779.47443    -893.7843            0   -880.88766   -4771.7827    13.440161    13.567181    13.463008    2.4114504      3078.16    621.55154 
 1765000    814.31413    -895.1331            0   -881.66003   -4030.7926    13.440161    13.567181    13.463008    2.7284393    3079.9928    619.69826 
 1766000    752.23959   -892.88351            0   -880.43749   -7275.6136    13.440161    13.567181    13.463008    3.3604727    3081.8262    617.84511 
 1767000     816.3748   -893.42613            0   -879.91897   -3796.2526    13.440161    13.567181    13.463008    1.7454864    3083.6658    615.99323 
 1768000     779.6636   -892.58175            0   -879.68198   -3635.9983    13.440161    13.567181    13.463008     2.392096    3085.5023    614.14075 
 1769000    734.56459   -894.21932            0   -882.06573   -3970.5054    13.440161    13.567181    13.463008    1.7922934    3087.3351    612.28755 
 1770000    849.59634    -892.7433            0   -878.68648   -4538.1825    13.440161    13.567181    13.463008    2.4120502    3089.1652    610.43384 
 1771000     768.6369   -892.79911            0   -880.08178    -5802.377    13.440161    13.567181    13.463008    2.2422294    3091.0184    608.58471 
 1772000    814.71708   -894.57708            0   -881.09734   -4964.5187    13.440161    13.567181    13.463008    2.4950471    3092.8641     606.7341 
 1773000    704.69887   -892.05531            0   -880.39586    335.00146    13.440161    13.567181    13.463008    2.7904898    3094.7047    604.88251 
 1774000    820.72465   -893.55657            0   -879.97744   -3447.2337    13.440161    13.567181    13.463008    2.7421295    3096.5356    603.02904 
 1775000    790.24881   -892.57233            0   -879.49743   -2158.1802    13.440161    13.567181    13.463008    2.9929643    3098.3659    601.17548 
 1776000    704.27962   -893.52508            0   -881.87256   -6308.6195    13.440161    13.567181    13.463008    2.6042661     3100.196    599.32189 
 1777000    804.69935   -892.85083            0   -879.53684    -4304.403    13.440161    13.567181    13.463008    3.5177146    3102.0255    597.46825 
 1778000    808.46475   -892.85445            0   -879.47816   -5639.8103    13.440161    13.567181    13.463008    2.5386553    3103.8553    595.61467 
 1779000    805.02526   -894.81557            0   -881.49618   -3394.6498    13.440161    13.567181    13.463008    2.6181617    3105.6848    593.76107 
 1780000    763.22698   -893.19682            0     -880.569   -2431.7354    13.440161    13.567181    13.463008    1.9675724    3107.5127    591.90718 
 1781000    783.03798   -892.54284            0   -879.58724   -899.93098    13.440161    13.567181    13.463008    2.4701821    3109.3434    590.05386 
 1782000     833.9201    -892.8986            0   -879.10115   -3149.4892    13.440161    13.567181    13.463008    2.4181639     3111.174    588.20056 
 1783000    708.06375   -893.49915            0   -881.78402   -3753.0754    13.440161    13.567181    13.463008    2.0270191     3113.005    586.34735 
 1784000    954.59697   -894.30754            0   -878.51344   -5253.2771    13.440161    13.567181    13.463008    2.1309558    3114.8341    584.49381 
 1785000    866.79781   -893.80623            0    -879.4648   -4538.2108    13.440161    13.567181    13.463008    2.7736712    3116.6651    582.64065 
 1786000    772.34934   -894.07918            0   -881.30043   -3158.5882    13.440161    13.567181    13.463008    2.0152403    3118.4948    580.78729 
 1787000    892.39997   -892.57001            0   -877.80499   -4236.3572    13.440161    13.567181    13.463008    2.0620065     3120.324    578.93385 
 1788000    842.04587   -893.94924            0   -880.01734    -5207.878    13.440161    13.567181    13.463008    2.2029053    3122.1571    577.08116 
 1789000    768.38773   -893.73127            0   -881.01807   -7154.5287    13.440161    13.567181    13.463008    2.5140223    3123.9915    575.22875 
 1790000    766.39854    -890.0287            0   -877.34841   -3698.4366    13.440161    13.567181    13.463008    3.4259663     3125.824    573.37601 
 1791000    822.38472   -893.02125            0   -879.41465   -2801.8953    13.440161    13.567181    13.463008    2.4992504     3127.658    571.52355 
 1792000    703.44571   -892.66095            0   -881.02223   -477.68854    13.440161    13.567181    13.463008    2.7238409    3129.4916    569.67104 
 1793000    779.05885   -894.18376            0     -881.294   -1235.0521    13.440161    13.567181    13.463008    2.1632172    3131.3224    567.81807 
 1794000    826.28653   -892.27818            0   -878.60702   -2558.9159    13.440161    13.567181    13.463008    2.6471408    3133.1571     565.9658 
 1795000    701.64305   -893.46899            0   -881.86009   -5770.8852    13.440161    13.567181    13.463008    2.3052415    3134.9903    564.11329 
 1796000    764.39324   -893.55121            0    -880.9041   -5720.2896    13.440161    13.567181    13.463008    2.5960363    3136.8226    562.26066 
 1797000    745.57878    -891.8099            0   -879.47407   -4444.1358    13.440161    13.567181    13.463008    2.8145093     3138.653    560.40769 
 1798000    725.07371   -894.60515            0   -882.60859    -7258.849    13.440161    13.567181    13.463008    2.0262144    3140.4866    558.55532 
 1799000    763.45735   -893.18721            0   -880.55558   -4868.7551    13.440161    13.567181    13.463008    3.2092683    3142.3189    556.70277 
 1800000    785.42801   -892.65691            0   -879.66177    -3228.475    13.440161    13.567181    13.463008    3.3274819    3144.1493    554.84988 
 1801000     742.2328   -895.48276            0    -883.2023   -7878.6263    13.440161    13.567181    13.463008    1.5576557     3145.982    552.99743 
 1802000    799.38822   -894.90152            0    -881.6754   -5337.7263    13.440161    13.567181    13.463008    2.8300286    3147.8174    551.14548 
 1803000    844.16093    -893.7964            0    -879.8295    -1855.522    13.440161    13.567181    13.463008    2.7727587    3149.6866    549.29943 
 1804000    799.36919   -895.31046            0   -882.08466   -8661.9274    13.440161    13.567181    13.463008    1.8468027    3151.5244     547.4479 
 1805000    790.49642    -894.7078            0    -881.6288   -5724.0095    13.440161    13.567181    13.463008    2.0252401     3153.376    545.59879 
 1806000    770.52742   -892.85807            0   -880.10947   -1903.0463    13.440161    13.567181    13.463008    2.8318502    3155.2149    543.74746 
 1807000    737.82245   -893.46408            0   -881.25659   -6423.3796    13.440161    13.567181    13.463008    2.3761433    3157.1072    541.90533 
 1808000    699.23945   -894.48198            0   -882.91285    -7348.473    13.440161    13.567181    13.463008    1.9812508    3158.9366     540.0524 
 1809000    860.33924   -893.85598            0   -879.62141   -4978.0106    13.440161    13.567181    13.463008    2.2366412    3160.7709    538.20032 
 1810000    801.16774   -894.24033            0   -880.98477    -4391.014    13.440161    13.567181    13.463008    1.7744073    3162.6043    536.34809 
 1811000    754.02929   -895.77392            0   -883.29828   -5218.9939    13.440161    13.567181    13.463008    1.6264426    3164.4396    534.49623 
 1812000    833.11464   -893.13899            0   -879.35485   -6183.1694    13.440161    13.567181    13.463008    1.8379636    3166.2766    532.64465 
 1813000    819.69884   -894.27331            0   -880.71115   -5499.9499    13.440161    13.567181    13.463008    2.2306315    3168.1172    530.79371 
 1814000    770.12513   -894.69128            0   -881.94933   -5746.8052    13.440161    13.567181    13.463008     2.827093    3169.9522    528.94185 
 1815000    838.23801    -892.4827            0    -878.6138   -3687.7868    13.440161    13.567181    13.463008    2.0402964    3171.7934    527.09103 
 1816000     760.2129   -893.93916            0   -881.36121   -7346.6496    13.440161    13.567181    13.463008     2.098943    3173.6282    525.23916 
 1817000    712.41361   -891.71496            0   -879.92786   -2060.8959    13.440161    13.567181    13.463008    2.3493087    3175.4594    523.38672 
 1818000    824.78221   -891.99775            0   -878.35148   -2868.8407    13.440161    13.567181    13.463008    2.8040213     3177.294    521.53486 
 1819000    800.49656   -894.22926            0    -880.9848   -5223.2218    13.440161    13.567181    13.463008    2.9299965    3179.1258    519.68258 
 1820000    798.75522   -892.08214            0    -878.8665   -1362.1415    13.440161    13.567181    13.463008    2.5625898    3180.9604    517.83077 
 1821000    735.19409   -890.40136            0   -878.23735   -4786.3501    13.440161    13.567181    13.463008     2.631733    3182.7952    515.97899 
 1822000    824.25236   -893.97621            0   -880.33871   -4959.9654    13.440161    13.567181    13.463008    3.3862084    3184.6427    514.12931 
 1823000    748.59655   -893.03436            0   -880.64861   -3949.5889    13.440161    13.567181    13.463008    2.1379853    3186.4743    512.27706 
 1824000    844.88475   -892.13786            0   -878.15899   -981.79339    13.440161    13.567181    13.463008    2.3159475    3188.3603    510.43354 
 1825000    731.98632   -893.56541            0   -881.45448   -4489.1236    13.440161    13.567181    13.463008    1.9547156    3190.2002    508.58265 
 1826000    829.58891    -894.3085            0    -880.5827   -5951.0152    13.440161    13.567181    13.463008    1.9796171    3192.0325    506.73054 
 1827000    862.65688   -891.95617            0   -877.68325   -1600.0585    13.440161    13.567181    13.463008    2.3032686    3193.8643    504.87838 
 1828000    849.68998   -892.81267            0   -878.75429   -4274.0705    13.440161    13.567181    13.463008    2.2849474    3195.7008    503.02698 
 1829000     841.1155   -895.14979            0   -881.23328   -6400.5385    13.440161    13.567181    13.463008    1.8264561    3197.5355    501.17532 
 1830000    890.94225   -894.40304            0   -879.66214   -5525.7874    13.440161    13.567181    13.463008    3.0133058    3199.3821    499.32554 
 1831000    876.60513   -893.68494            0   -879.18125   -6828.8029    13.440161    13.567181    13.463008    2.6481772     3201.214    497.47347 
 1832000    787.34317   -894.41298            0   -881.38616   -5525.3771    13.440161    13.567181    13.463008    2.4416601    3203.0465    495.62152 
 1833000     894.3355   -894.16522            0   -879.36817   -3758.7493    13.440161    13.567181    13.463008    2.9218381    3204.8798    493.76971 
 1834000    831.46437   -893.58182            0   -879.82499   -3289.6215    13.440161    13.567181    13.463008    2.1434994    3206.7116    491.91769 
 1835000    792.28709   -895.06096            0   -881.95233   -4034.4614    13.440161    13.567181    13.463008    3.0395859    3208.5422    490.06552 
 1836000    840.28346   -892.87509            0   -878.97234   -2917.7249    13.440161    13.567181    13.463008    2.3126994    3210.3818    488.21474 
 1837000    829.29487   -893.89002            0   -880.16909   -6541.8964    13.440161    13.567181    13.463008    2.4082827    3212.2164    486.36322 
 1838000    797.86511   -894.16928            0   -880.96836   -4800.3175    13.440161    13.567181    13.463008     2.220331    3214.0495    484.51148 
 1839000    790.47805   -892.96742            0   -879.88872    2198.0412    13.440161    13.567181    13.463008    3.0397868    3215.8814     482.6596 
 1840000    856.10501   -894.18562            0   -880.02111   -1854.0324    13.440161    13.567181    13.463008    2.1231561    3217.7135    480.80776 
 1841000    777.67585    -895.1172            0   -882.25032   -5600.0083    13.440161    13.567181    13.463008     2.231398    3219.5452    478.95589 
 1842000    882.37435   -893.19554            0    -878.5964    -2439.661    13.440161    13.567181    13.463008    2.6484981    3221.3773     477.1041 
 1843000    755.02321   -893.49153            0   -880.99945   -1466.3203    13.440161    13.567181    13.463008     2.884732    3223.3005    475.26576 
 1844000    771.83245   -893.59204            0   -880.82184   -6646.9158    13.440161    13.567181    13.463008    2.2963073    3225.1372    473.41463 
 1845000    796.73417    -891.4031            0    -878.2209   -3638.0967    13.440161    13.567181    13.463008    3.8098741    3226.9859    471.56527 
 1846000    752.69225   -893.57833            0   -881.12481   -3360.3086    13.440161    13.567181    13.463008    1.8946428    3228.8213    469.71398 
 1847000    804.77477   -892.96725            0   -879.65201   -2287.1259    13.440161    13.567181    13.463008    2.3080566    3230.6549    467.86244 
 1848000    827.83186   -891.58169            0   -877.88496   -2402.1613    13.440161    13.567181    13.463008    3.0083545    3232.4885    466.01093 
 1849000    820.15092   -893.83356            0   -880.26392   -3070.3109    13.440161    13.567181    13.463008    1.6356485    3234.3357    464.16138 
 1850000    765.77993   -894.38192            0   -881.71187   -3944.9932    13.440161    13.567181    13.463008    2.4312865    3236.1692    462.30988 
 1851000    862.16787   -893.03802            0   -878.77319    -4525.323    13.440161    13.567181    13.463008    2.5163136    3238.0086    460.45925 
 1852000    881.96503    -895.0113            0   -880.41893   -2850.3568    13.440161    13.567181    13.463008    1.5892496     3239.843    458.60792 
 1853000    860.85354   -895.21637            0   -880.97329   -5226.3897    13.440161    13.567181    13.463008    2.5720091     3241.675    456.75626 
 1854000    843.45179   -893.35725            0   -879.40209     -1734.35    13.440161    13.567181    13.463008    2.1292013    3243.5073    454.90467 
 1855000    837.81735   -891.50819            0   -877.64625    60.529294    13.440161    13.567181    13.463008    2.4132894     3245.342    453.05344 
 1856000    776.99591   -893.91117            0   -881.05554   -3414.9962    13.440161    13.567181    13.463008    2.5835001    3247.1765     451.2022 
 1857000    789.17708   -892.54211            0   -879.48494   -3482.5565    13.440161    13.567181    13.463008    1.8915615    3249.0515    449.35659 
 1858000    837.29325   -892.02556            0   -878.17229   -3006.0978    13.440161    13.567181    13.463008    2.4876095    3250.9307    447.51151 
 1859000    794.22164   -894.82502            0   -881.68439   -6335.3653    13.440161    13.567181    13.463008    1.8015876     3252.767    445.66052 
 1860000    922.03087   -894.48516            0   -879.22988   -4382.8093    13.440161    13.567181    13.463008    2.1014289    3254.6194    443.81173 
 1861000    781.47238   -893.93825            0   -881.00855   -1781.7772    13.440161    13.567181    13.463008    1.9460015    3256.4546    441.96061 
 1862000    724.01796   -893.39239            0   -881.41329   -2356.9046    13.440161    13.567181    13.463008    2.6901784    3258.3103    440.11229 
 1863000    780.90977   -892.19673            0   -879.27635   -3946.3993    13.440161    13.567181    13.463008    2.2558299    3260.1504    438.26185 
 1864000     694.5475   -894.30778            0   -882.81628   -8079.1064    13.440161    13.567181    13.463008    1.8219604    3261.9995    436.41263 
 1865000    768.82087   -894.27666            0   -881.55629   -5749.5597    13.440161    13.567181    13.463008    2.6759305    3263.8316    434.56115 
 1866000    740.91406   -891.65132            0   -879.39268    265.32884    13.440161    13.567181    13.463008    2.7051004    3265.6814    432.71203 
 1867000    667.74884   -893.35375            0   -882.30564   -1920.3059    13.440161    13.567181    13.463008    2.1558528    3267.5192    430.86133 
 1868000     762.1085   -894.30266            0   -881.69335   -1000.4641    13.440161    13.567181    13.463008    1.8747935    3269.3684    429.01214 
 1869000     776.9795   -893.09377            0   -880.23841   -2391.2277    13.440161    13.567181    13.463008    2.3100462    3271.2036    427.16113 
 1870000    856.42767   -895.08784            0   -880.91799   -4496.0945    13.440161    13.567181    13.463008    1.7653161    3273.0466    425.31114 
 1871000    695.48043   -894.17687            0   -882.66993     -356.529    13.440161    13.567181    13.463008    2.9083724    3274.8868     423.4608 
 1872000     822.6533   -893.49869            0   -879.88765   -2945.9447    13.440161    13.567181    13.463008     2.093823    3276.7414    421.61233 
 1873000    736.78032   -893.15471            0   -880.96446   -2192.1008    13.440161    13.567181    13.463008    2.0737908    3278.5765    419.76135 
 1874000    710.21985    -894.8442            0    -883.0934   -5519.9647    13.440161    13.567181    13.463008    2.6280253    3280.4159    417.91093 
 1875000    883.71005   -894.56427            0   -879.94303   -6368.3058    13.440161    13.567181    13.463008    2.0574635    3282.2533    416.06028 
 1876000    774.50476   -893.72205            0   -880.90764   -6965.4156    13.440161    13.567181    13.463008    2.5241228    3284.0987    414.21065 
 1877000    754.62505   -895.17946            0   -882.69396   -4573.8702    13.440161    13.567181    13.463008     2.308536    3285.9296    412.35921 
 1878000    901.77727   -894.04981            0   -879.12964   -2545.9201    13.440161    13.567181    13.463008    1.8554819     3287.781    410.51034 
 1879000    784.43222   -893.93538            0   -880.95671   -3139.1865    13.440161    13.567181    13.463008    2.2336991    3289.6303    408.66121 
 1880000    823.14812   -895.34433            0    -881.7251   -4562.1126    13.440161    13.567181    13.463008    2.4935274    3291.4598    406.80964 
 1881000    846.85619   -892.93623            0   -878.92474   -2897.3118    13.440161    13.567181    13.463008    2.0586826     3293.306    404.96014 
 1882000    699.02183    -893.2694            0   -881.70388   -3851.4922    13.440161    13.567181    13.463008    2.2328054     3295.146    403.10989 
 1883000    790.31159   -891.91813            0   -878.84219    -3422.751    13.440161    13.567181    13.463008    2.3611918    3297.0036     401.2618 
 1884000    793.11998   -892.25084            0   -879.12843   -2706.3028    13.440161    13.567181    13.463008      2.30279    3298.8402    399.41115 
 1885000    755.42688   -893.37509            0   -880.87632   -4459.6272    13.440161    13.567181    13.463008    2.5323437    3300.6789    397.56076 
 1886000    944.96676   -893.26157            0   -877.62681   -2051.3048    13.440161    13.567181    13.463008    2.2145139    3302.5201    395.71069 
 1887000    832.95656   -893.07448            0   -879.29297   -5686.3257    13.440161    13.567181    13.463008    2.0563939    3304.3726    393.86199 
 1888000    787.35444   -893.53328            0   -880.50627   -3159.7694    13.440161    13.567181    13.463008     2.090113    3306.2127     392.0118 
 1889000    952.28444   -894.62726            0   -878.87143   -3518.7841    13.440161    13.567181    13.463008     1.546612    3308.0582    390.16225 
 1890000     795.4786   -891.91608            0   -878.75465   -3837.3948    13.440161    13.567181    13.463008    3.1512824    3309.8968    388.31192 
 1891000    753.97495   -893.32417            0   -880.84943   -6114.1507    13.440161    13.567181    13.463008    3.1784855    3311.7465    386.46288 
 1892000    881.61873   -893.44561            0   -878.85896   -5031.7987    13.440161    13.567181    13.463008    2.1405099     3313.579    384.61184 
 1893000    969.13171   -892.48945            0   -876.45488   -2027.2502    13.440161    13.567181    13.463008     2.139375    3315.4259     382.7625 
 1894000    760.88278   -893.07301            0   -880.48398   -5293.8557    13.440161    13.567181    13.463008    1.9293584    3317.2574    380.91139 
 1895000     823.6811   -894.44536            0   -880.81731   -5952.5277    13.440161    13.567181    13.463008    2.3533226    3319.1062    379.06227 
 1896000    817.65111   -891.47364            0   -877.94536    -2236.248    13.440161    13.567181    13.463008    2.3044588    3320.9331    377.21067 
 1897000    742.24099   -893.69423            0   -881.41363    -5575.772    13.440161    13.567181    13.463008    1.9557527    3322.7813    375.36149 
 1898000    817.21284   -893.69491            0   -880.17388   -5126.4493    13.440161    13.567181    13.463008    2.3230715    3324.6083    373.50995 
 1899000    869.85415   -893.28116            0   -878.88916    157.12535    13.440161    13.567181    13.463008    2.4433026    3326.4357    371.65847 
 1900000    712.98066   -893.99996            0   -882.20348   -3511.9206    13.440161    13.567181    13.463008    3.5560292    3328.2679    369.80754 
 1901000    792.37062   -892.58042            0   -879.47041    35.173587    13.440161    13.567181    13.463008    2.0204062    3330.0983    367.95645 
 1902000     783.2581   -892.66588            0   -879.70664   -5868.9585    13.440161    13.567181    13.463008    2.4264232    3331.9414    366.10677 
 1903000    730.43624   -893.77098            0   -881.68569   -4217.5005    13.440161    13.567181    13.463008     2.126276    3333.7689    364.25539 
 1904000    813.13518   -895.59147            0    -882.1379   -6164.1203    13.440161    13.567181    13.463008    2.1419374    3335.6106    362.40559 
 1905000    833.17501   -893.13395            0   -879.34883   -3559.9328    13.440161    13.567181    13.463008    2.6501797    3337.4439    360.55488 
 1906000    773.61815    -893.2871            0   -880.48736   -4568.1225    13.440161    13.567181    13.463008    1.8796533    3339.2743    358.70388 
 1907000    775.87307   -894.85379            0   -882.01674   -5437.5388    13.440161    13.567181    13.463008    1.7158275    3341.1014    356.85255 
 1908000     799.9641    -892.7564            0   -879.52075   -2324.1964    13.440161    13.567181    13.463008    2.2028274    3342.9331    355.00175 
 1909000    738.66396   -892.89553            0   -880.67411   -2076.2986    13.440161    13.567181    13.463008    2.2027579    3344.7674    353.15123 
 1910000    723.34631   -894.25007            0   -882.28208   -3861.3603    13.440161    13.567181    13.463008    2.4438083    3346.6145    351.30207 
 1911000    815.24348   -892.35544            0     -878.867    -2124.802    13.440161    13.567181    13.463008    1.7254779    3348.4557    349.45231 
 1912000    760.89881   -893.04895            0   -880.45965   -7152.7592    13.440161    13.567181    13.463008    2.2116083    3350.3019    347.60307 
 1913000    801.54345   -895.26527            0    -882.0035   -5364.3767    13.440161    13.567181    13.463008     1.733631     3352.133    345.75227 
 1914000    809.88133   -892.12358            0   -878.72385   -2414.5865    13.440161    13.567181    13.463008    2.6370843    3353.9767    343.90279 
 1915000    834.70129    -894.8029            0   -880.99252   -5344.4718    13.440161    13.567181    13.463008    2.5558755    3355.8087    342.05213 
 1916000    743.70257   -893.00124            0   -880.69646   -2812.0589    13.440161    13.567181    13.463008    2.0211235    3357.6628    340.20372 
 1917000    888.54055   -892.94132            0   -878.24015    -2281.672    13.440161    13.567181    13.463008    2.4434028    3359.5278    338.35641 
 1918000    767.65955   -894.43406            0    -881.7329    -6070.011    13.440161    13.567181    13.463008    2.8967351    3361.3899    336.50878 
 1919000    803.84101   -893.50843            0   -880.20864    -3385.669    13.440161    13.567181    13.463008    1.5606055    3363.2382    334.65977 
 1920000    912.59245   -893.72901            0   -878.62989    -3184.799    13.440161    13.567181    13.463008    2.5241908    3365.0991      332.812 
 1921000    752.85582   -894.50702            0    -882.0508   -3590.3597    13.440161    13.567181    13.463008    1.8614728     3366.958    330.96402 
 1922000    836.47738    -893.5616            0   -879.72183   -5152.6495    13.440161    13.567181    13.463008    2.5018884    3368.7924    329.11364 
 1923000    840.56442   -893.32689            0    -879.4195   -2899.0344    13.440161    13.567181    13.463008    2.2619294     3370.647    327.26524 
 1924000    783.83173   -893.80152            0   -880.83279   -4345.2038    13.440161    13.567181    13.463008    3.1216103    3372.4795    325.41469 
 1925000    670.50972   -894.91311            0   -883.81933   -8903.8444    13.440161    13.567181    13.463008    1.9526435    3374.3238     323.5653 
 1926000     723.0817   -892.89368            0   -880.93008   -5440.3637    13.440161    13.567181    13.463008    2.4674944    3376.1528    321.71445 
 1927000    880.33305   -893.97745            0   -879.41207   -4526.8311    13.440161    13.567181    13.463008    2.3668327    3377.9921    319.86461 
 1928000    747.95025   -893.40479            0   -881.02973   -7017.7813    13.440161    13.567181    13.463008    2.1475128     3379.829    318.01454 
 1929000    708.00835   -893.43124            0   -881.71703    -4695.189    13.440161    13.567181    13.463008    3.3453311    3381.6699    316.16488 
 1930000    843.94065   -893.00589            0   -879.04264   -4899.8089    13.440161    13.567181    13.463008    2.9357165    3383.5004    314.31424 
 1931000    799.40591   -894.63277            0   -881.40636   -1746.0094    13.440161    13.567181    13.463008    1.8986435    3385.3451    312.46495 
 1932000    755.42445    -892.2884            0   -879.78967   -2869.3538    13.440161    13.567181    13.463008    1.8207802     3387.208    310.61733 
 1933000    882.72531   -893.47225            0    -878.8673   -4624.7591    13.440161    13.567181    13.463008    2.2992104    3389.0593    308.76863 
 1934000     808.9335   -894.75042            0   -881.36638    -4106.638    13.440161    13.567181    13.463008    2.3596445    3390.8953    306.91855 
 1935000    774.62304   -892.97835            0   -880.16198   -5416.0034    13.440161    13.567181    13.463008    1.8530859    3392.7503    305.07019 
 1936000    825.95746   -893.65234            0   -879.98662   -4215.1902    13.440161    13.567181    13.463008     2.177304    3394.5958    303.22098 
 1937000     810.4526   -893.91885            0   -880.50967   -9208.8707    13.440161    13.567181    13.463008    2.4574737    3396.4359    301.37129 
 1938000    790.04874   -894.89638            0   -881.82479   -4318.2727    13.440161    13.567181    13.463008    1.9411736    3398.2757    299.52158 
 1939000    830.83414   -893.03819            0   -879.29179   -3810.9061    13.440161    13.567181    13.463008    2.2828558    3400.1148    297.67182 
 1940000    812.00207   -893.24595            0   -879.81113   -6350.4156    13.440161    13.567181    13.463008    2.3053096    3401.9504    295.82177 
 1941000      785.238   -895.14837            0   -882.15637   -5626.6933    13.440161    13.567181    13.463008    2.5644366    3403.8044    293.97333 
 1942000    822.90855   -893.25493            0   -879.63966   -760.56085    13.440161    13.567181    13.463008    2.0966816    3405.6615    292.12514 
 1943000    829.89967   -893.57601            0   -879.84507   -3698.4025    13.440161    13.567181    13.463008    2.1914716       3407.5    290.27537 
 1944000    727.66472   -894.45404            0   -882.41461   -4243.8289    13.440161    13.567181    13.463008    2.6984534    3409.3348    288.42528 
 1945000    914.89575   -894.68738            0   -879.55016   -6486.5389    13.440161    13.567181    13.463008    1.8747429    3411.1651    286.57484 
 1946000    725.07256   -892.45808            0   -880.46154   -2039.1105    13.440161    13.567181    13.463008    2.0642356    3413.0065    284.72535 
 1947000     667.7636   -894.68046            0   -883.63211   -7148.7486    13.440161    13.567181    13.463008    2.7198864    3414.8446    282.87559 
 1948000    762.65348    -892.7601            0   -880.14177   -5428.0573    13.440161    13.567181    13.463008    1.7276272    3416.6892    281.02638 
 1949000    838.17088   -893.47435            0   -879.60656   -2047.7033    13.440161    13.567181    13.463008    2.0296365    3418.5188    279.17595 
 1950000    709.05926   -893.74307            0   -882.01147   -527.74381    13.440161    13.567181    13.463008    2.8953434    3420.3546    277.32605 
 1951000    853.38656   -894.20232            0   -880.08279   -9032.2066    13.440161    13.567181    13.463008    1.9424894      3422.22    275.47854 
 1952000    780.40729   -892.14575            0   -879.23368   -3506.9489    13.440161    13.567181    13.463008    2.2308666    3424.0585    273.62887 
 1953000    739.42136   -894.07657            0   -881.84262   -4025.7946    13.440161    13.567181    13.463008    2.0957079    3425.8989    271.77935 
 1954000    811.14821   -892.18099            0    -878.7603    -3.296581    13.440161    13.567181    13.463008    2.1000309    3427.7985    269.93451 
 1955000    783.01151    -892.5912            0   -879.63604   -2415.4203    13.440161    13.567181    13.463008     2.818275    3429.6705    268.08745 
 1956000    805.89232   -894.82408            0   -881.49035   -4472.8698    13.440161    13.567181    13.463008    1.7702993    3431.5062    266.23755 
 1957000    843.82462   -894.01022            0   -880.04889   -1717.6603    13.440161    13.567181    13.463008    2.6559668    3433.3359     264.3872 
 1958000    757.30022   -892.61252            0   -880.08276    -5086.719    13.440161    13.567181    13.463008    3.1407259    3435.1897    262.53872 
 1959000    864.12976   -894.70026            0   -880.40298   -4229.2469    13.440161    13.567181    13.463008    2.5789192    3437.0422    260.69013 
 1960000    733.55328   -892.31596            0    -880.1791   -4296.2584    13.440161    13.567181    13.463008     3.151232    3438.9053    258.84233 
 1961000    856.36682   -892.79303            0   -878.62419    296.26831    13.440161    13.567181    13.463008     2.516889    3440.7432    256.99264 
 1962000    761.84623   -894.53873            0   -881.93375   -3299.7475    13.440161    13.567181    13.463008    1.9633835     3442.602    255.14451 
 1963000    740.43991   -892.55172            0   -880.30092   -3347.3959    13.440161    13.567181    13.463008    2.1491517    3444.4672    253.29684 
 1964000     725.3112   -891.67432            0   -879.67383   -1185.2096    13.440161    13.567181    13.463008    3.0562683    3446.3004    251.44681 
 1965000    741.19138    -892.7537            0   -880.49046   -3899.9196    13.440161    13.567181    13.463008    2.5363234    3448.1434    249.59751 
 1966000    778.86072   -895.70931            0   -882.82283   -7821.2658    13.440161    13.567181    13.463008    2.1618103    3449.9704    247.74707 
 1967000    886.14609   -894.20474            0   -879.54318   -5490.0721    13.440161    13.567181    13.463008    2.0102147    3451.8146    245.89788 
 1968000     796.5653   -893.64983            0   -880.47041   -2375.0091    13.440161    13.567181    13.463008    1.9910756      3453.66    244.04878 
 1969000    735.19832    -894.5286            0   -882.36453   -3642.1416    13.440161    13.567181    13.463008    1.7863827    3455.5211    242.20078 
 1970000    850.97948   -893.00105            0   -878.92134   -4416.8653    13.440161    13.567181    13.463008    2.1758951    3457.3511    240.35061 
 1971000    804.72028   -893.79764            0   -880.48331   -4253.5981    13.440161    13.567181    13.463008    1.9495696    3459.1966    238.50153 
 1972000     721.6533   -893.51433            0   -881.57436   -4384.8161    13.440161    13.567181    13.463008    2.6290832    3461.0288    236.65154 
 1973000    831.64219    -894.1247            0   -880.36493   -3094.9966    13.440161    13.567181    13.463008    2.1868691    3462.8836    234.80311 
 1974000    900.45077    -894.4683            0   -879.57007   -5582.4434    13.440161    13.567181    13.463008    2.0762887    3464.7223    232.95358 
 1975000     838.3032   -894.53182            0   -880.66184   -6642.4831    13.440161    13.567181    13.463008    1.8822096    3466.5572    231.10382 
 1976000    791.12956   -894.91303            0   -881.82356   -5791.8296    13.440161    13.567181    13.463008    1.7538202    3468.3899    229.25391 
 1977000    895.06613   -893.43703            0    -878.6279   -2609.6259    13.440161    13.567181    13.463008    2.2060865    3470.2526      227.406 
 1978000     817.0112   -894.00633            0   -880.48863   -5466.4183    13.440161    13.567181    13.463008    2.2447598    3472.0819    225.55591 
 1979000    834.95421   -894.41771            0   -880.60314   -3061.4971    13.440161    13.567181    13.463008    2.4295315    3473.9207    223.70645 
 1980000    754.78492   -892.55469            0   -880.06655   -3965.7138    13.440161    13.567181    13.463008    2.1252632    3475.7538    221.85663 
 1981000    797.60574   -891.85966            0   -878.66303   -1447.3696    13.440161    13.567181    13.463008    3.1380569    3477.6334    220.00977 
 1982000    759.27736   -894.17938            0   -881.61691   -7233.5776    13.440161    13.567181    13.463008    2.4379185    3479.4688    218.16011 
 1983000    825.67351   -893.61968            0   -879.95866   -5659.0799    13.440161    13.567181    13.463008    2.3032084    3481.3066     216.3106 
 1984000    855.13447   -893.08726            0    -878.9388   -886.84981    13.440161    13.567181    13.463008    2.2278938    3483.1623    214.46222 
 1985000    778.65501   -893.90898            0    -881.0259   -5766.9617    13.440161    13.567181    13.463008    2.1176966    3485.0297    212.61454 
 1986000    790.07399   -892.91152            0   -879.83951   -2456.9944    13.440161    13.567181    13.463008    2.0805435    3486.8702    210.76522 
 1987000    852.75182   -892.72268            0   -878.61365   -1322.7908    13.440161    13.567181    13.463008    1.8819346     3488.717    208.91628 
 1988000    699.19809    -892.6425            0   -881.07406   -6070.0309    13.440161    13.567181    13.463008    1.9610292    3490.5874    207.06874 
 1989000    870.97823   -894.29551            0   -879.88491   -5147.7804    13.440161    13.567181    13.463008    2.3199168    3492.4245    205.21923 
 1990000    902.51589   -892.88316            0   -877.95077   -4409.7625    13.440161    13.567181    13.463008     2.509098    3494.2821    203.37092 
 1991000    820.41725   -894.32045            0    -880.7464   -4215.0661    13.440161    13.567181    13.463008    1.6488686    3496.1321    201.52216 
 1992000    746.26299   -893.11801            0   -880.77087   -866.15003    13.440161    13.567181    13.463008    2.1371016    3497.9992    199.67437 
 1993000    800.18784   -892.10956            0   -878.87022   -2572.7791    13.440161    13.567181    13.463008    2.1182396    3499.8412    197.82515 
 1994000    783.43938   -894.47059            0   -881.50835   -3503.6944    13.440161    13.567181    13.463008    2.8551304    3501.6928    195.97647 
 1995000    841.51406   -894.99329            0   -881.07019   -6884.1438    13.440161    13.567181    13.463008    1.8770483    3503.5629    194.12881 
 1996000    795.81825   -892.66324            0   -879.49619   -3004.7402    13.440161    13.567181    13.463008     2.083223    3505.4277    192.28084 
 1997000    802.27877   -893.58227            0   -880.30833   -4143.1621    13.440161    13.567181    13.463008    3.3508665    3507.2726    190.43177 
 1998000    821.45851   -895.07923            0   -881.48795   -3500.2413    13.440161    13.567181    13.463008    1.8216996    3509.1732    188.58571 
 1999000     782.6554    -892.6168            0   -879.66754   -1323.7444    13.440161    13.567181    13.463008    2.3201575    3511.0102    186.73619 
 2000000    776.63562   -892.35086            0   -879.50119   -3168.1884    13.440161    13.567181    13.463008    2.1469933    3512.8459    184.88662 
 2001000    786.96115   -894.73818            0   -881.71767   -5109.4386    13.440161    13.567181    13.463008    2.5548846    3514.6834    183.03717 
 2002000    853.90968   -893.56269            0    -879.4345   -3738.7553    13.440161    13.567181    13.463008    3.0012826    3516.5148    181.18741 
 2003000    795.59379   -893.35418            0   -880.19084   -2259.9249    13.440161    13.567181    13.463008    2.2634724    3518.3704     179.3389 
 2004000    738.88406   -894.45926            0    -882.2342   -8392.4769    13.440161    13.567181    13.463008    2.3539826    3520.2212    177.49014 
 2005000    835.26745   -893.00096            0   -879.18121   -4675.4651    13.440161    13.567181    13.463008    2.3397378    3522.0736    175.64147 
 2006000    807.55779   -893.73781            0   -880.37652   -3025.3421    13.440161    13.567181    13.463008    2.0465145    3523.9352    173.79324 
 2007000    758.64072   -893.32139            0   -880.76945   -6730.5296    13.440161    13.567181    13.463008      2.71641    3525.7868    171.94451 
 2008000    804.75765   -893.72095            0   -880.40599   -8653.1617    13.440161    13.567181    13.463008    2.6455496    3527.6186    170.09482 
 2009000    773.35252   -893.15484            0   -880.35949   -6608.3535    13.440161    13.567181    13.463008     2.266362    3529.4528    168.24526 
 2010000    787.74529   -894.63932            0   -881.60584   -5517.2645    13.440161    13.567181    13.463008    1.7016649     3531.291    166.39591 
 2011000    861.59572   -893.65127            0   -879.39591   -5009.9863    13.440161    13.567181    13.463008    2.3142556    3533.1316    164.54668 
 2012000    826.08738   -893.50569            0   -879.83783   -3566.6205    13.440161    13.567181    13.463008    2.0912552    3534.9693    162.69733 
 2013000    799.60928   -894.98614            0   -881.75637   -6771.7259    13.440161    13.567181    13.463008    1.5613919    3536.8015    160.84774 
 2014000    887.06986   -894.04034            0    -879.3635   -1787.3106    13.440161    13.567181    13.463008    2.3241103    3538.6343     158.9982 
 2015000    746.05937   -894.15707            0   -881.81329   -1573.2053    13.440161    13.567181    13.463008    1.7530356    3540.4887    157.14963 
 2016000    756.77883    -893.9784            0   -881.45727   -2584.9924    13.440161    13.567181    13.463008    2.0230319    3542.3138    155.29977 
 2017000    803.36358   -892.97138            0   -879.67949   -4306.3191    13.440161    13.567181    13.463008    2.5623076    3544.1456    153.45023 
 2018000    736.05795     -893.135            0    -880.9567   -6106.8919    13.440161    13.567181    13.463008    1.9973539    3545.9983    151.60159 
 2019000    717.88203   -895.83638            0   -883.95881   -5752.2696    13.440161    13.567181    13.463008    2.6157889    3547.8594    149.75331 
 2020000    809.88641     -894.194            0   -880.79419   -4699.3523    13.440161    13.567181    13.463008    2.6036437    3549.6936     147.9039 
 2021000    895.54217   -894.32193            0   -879.50492    -3499.314    13.440161    13.567181    13.463008    2.6466067    3551.5278     146.0545 
 2022000    697.78704   -893.76697            0   -882.22187   -6439.3588    13.440161    13.567181    13.463008      2.29628    3553.3661    144.20528 
 2023000    819.84917    -894.3946            0   -880.82995   -4075.6385    13.440161    13.567181    13.463008    2.1974984    3555.1963    142.35576 
 2024000    733.59498   -892.16324            0   -880.02569   -5303.1614    13.440161    13.567181    13.463008    2.7756272    3557.0319    140.50646 
 2025000    756.14709   -894.39583            0   -881.88515   -4939.2015    13.440161    13.567181    13.463008    1.9175191    3558.8631    138.65701 
 2026000    721.24055   -894.45009            0   -882.51695   -3333.4962    13.440161    13.567181    13.463008    2.2545263    3560.7003     136.8078 
 2027000    782.60331   -892.28646            0   -879.33806   -819.58785    13.440161    13.567181    13.463008    2.4413735    3562.5387    134.95865 
 2028000    755.67197   -894.05341            0   -881.55059   -5666.3416    13.440161    13.567181    13.463008    2.2843696     3564.385    133.10981 
 2029000     759.8576   -894.25396            0   -881.68189   -6492.1766    13.440161    13.567181    13.463008    2.6129101     3566.215    131.26038 
 2030000    796.23763   -892.60373            0   -879.42974   -5497.7474    13.440161    13.567181    13.463008    2.0595738    3568.0692    129.41183 
 2031000    743.91614   -894.03351            0    -881.7252   -7312.3024    13.440161    13.567181    13.463008    2.6924114    3569.9131    127.56292 
 2032000    816.34089   -893.03855            0   -879.53195   -5730.4844    13.440161    13.567181    13.463008    2.6597336    3571.7924    125.71526 
 2033000    808.10777   -892.75776            0   -879.38737   -4155.9864    13.440161    13.567181    13.463008     2.106062    3573.6248    123.86594 
 2034000    808.49132   -894.23373            0     -880.857   -6329.3861    13.440161    13.567181    13.463008    2.1332744    3575.4778    122.01734 
 2035000    768.84925   -893.29066            0   -880.56982   -1246.0468    13.440161    13.567181    13.463008    2.0288249    3577.3157    120.16823 
 2036000    720.12288   -891.96154            0   -880.04689   -5210.6996    13.440161    13.567181    13.463008    2.2699027     3579.164    118.31947 
 2037000    819.39388   -892.66434            0   -879.10722   -5477.5602    13.440161    13.567181    13.463008    3.0891654    3581.0041    116.47045 
 2038000    783.81915   -894.95735            0   -881.98883   -6604.2054    13.440161    13.567181    13.463008    1.7572379    3582.8353    114.62115 
 2039000     879.8244   -893.62742            0   -879.07046   -4315.1191    13.440161    13.567181    13.463008    2.6543421    3584.6611     112.7717 
 2040000    924.51679   -894.53196            0   -879.23556   -5291.4462    13.440161    13.567181    13.463008    2.4404869    3586.4863    110.92226 
 2041000    711.16726   -893.28934            0   -881.52286   -4973.8979    13.440161    13.567181    13.463008    2.3841073    3588.3155    109.07296 
 2042000    902.94131   -893.50134            0   -878.56191     77.98699    13.440161    13.567181    13.463008     2.660651    3590.1436    107.22365 
 2043000    828.55043   -893.63192            0   -879.92331   -6428.1906    13.440161    13.567181    13.463008    1.9779395    3591.9721    105.37438 
 2044000    788.82605   -894.04041            0   -880.98905   -6332.4408    13.440161    13.567181    13.463008    2.0868908    3593.7965      103.525 
 2045000    788.10753   -891.21333            0   -878.17385   -2935.1237    13.440161    13.567181    13.463008    2.0092747    3595.6399    101.67619 
 2046000    867.61958   -893.16048            0   -878.80545    -5660.525    13.440161    13.567181    13.463008    2.7858761    3597.4725    99.827089 
 2047000    813.57067   -894.18939            0   -880.72862   -4477.1256    13.440161    13.567181    13.463008    1.9510656    3599.3173    97.978334 
 2048000    771.03264   -894.53577            0    -881.7788   -5306.9804    13.440161    13.567181    13.463008    1.5856168    3601.1436     96.12909 
 2049000     913.9175   -894.24915            0   -879.12811   -4243.8286    13.440161    13.567181    13.463008    2.2458157     3602.982    94.280185 
 2050000    753.52802   -893.18312            0   -880.71577    -4585.612    13.440161    13.567181    13.463008    2.0130976    3604.8076    92.430964 
 2051000    808.11645   -894.93342            0   -881.56289   -6935.0374    13.440161    13.567181    13.463008    2.1116675    3606.6558    90.582335 
 2052000    868.53153   -894.04949            0   -879.67937   -2371.1175    13.440161    13.567181    13.463008    2.3006415    3608.4833    88.733196 
 2053000    725.20284   -894.12174            0   -882.12304   -5104.3207    13.440161    13.567181    13.463008    2.3548933    3610.3327    86.884606 
 2054000    692.04997    -892.7678            0   -881.31763   -5031.7755    13.440161    13.567181    13.463008    2.7911888    3612.1573    85.035433 
 2055000    790.09876    -892.7663            0   -879.69388    -4055.119    13.440161    13.567181    13.463008    2.2231808    3613.9869      83.1864 
 2056000    705.36628   -894.37221            0   -882.70172   -3394.3659    13.440161    13.567181    13.463008    3.2934848    3615.8142    81.337334 
 2057000    731.19936   -894.04772            0   -881.94981   -5871.2113    13.440161    13.567181    13.463008    2.6102105    3617.6518    79.488517 
 2058000    779.94493   -893.12133            0   -880.21691   -5329.5616    13.440161    13.567181    13.463008    1.8115407     3619.477    77.639445 
 2059000    755.97777   -891.67974            0   -879.17186   -2172.0841    13.440161    13.567181    13.463008    2.4570582    3621.3152    75.790671 
 2060000    758.62622   -894.88825            0   -882.33655   -5938.1883    13.440161    13.567181    13.463008    2.4072808    3623.1398    73.941628 
 2061000    771.97871   -893.15584            0   -880.38322   -891.46353    13.440161    13.567181    13.463008    2.5456924    3624.9661    72.092646 
 2062000    797.23176   -893.35793            0   -880.16749   -2119.4469    13.440161    13.567181    13.463008    2.3229726     3626.792    70.243678 
 2063000     712.6198   -893.19937            0   -881.40887   -6419.1203    13.440161    13.567181    13.463008     1.767226    3628.6218    68.394807 
 2064000     779.0061   -892.84659            0    -879.9577   -6038.9856    13.440161    13.567181    13.463008    2.6013472    3630.4514    66.545952 
 2065000    846.65183    -893.1967            0   -879.18859   -4479.2892    13.440161    13.567181    13.463008    3.1352352    3632.2868     64.69722 
 2066000    674.25292   -893.04726            0   -881.89154    -6193.942    13.440161    13.567181    13.463008    2.3318503    3634.1241    62.848535 
 2067000    811.41691   -893.44327            0   -880.01814   -2980.9722    13.440161    13.567181    13.463008    2.0227983    3635.9616    60.999864 
 2068000    729.56644   -891.92117            0   -879.85027   -4703.0832    13.440161    13.567181    13.463008     2.872015    3637.8107    59.151393 
 2069000    708.00488   -894.31257            0   -882.59842   -5541.9583    13.440161    13.567181    13.463008    2.2158101    3639.6406     57.30262 
 2070000     776.4799   -892.42714            0   -879.58005   -5418.0374    13.440161    13.567181    13.463008    2.2504626    3641.4688     55.45384 
 2071000    787.69122   -893.42865            0   -880.39606   -4464.4251    13.440161    13.567181    13.463008    3.1852699    3643.2969    53.605079 
 2072000    719.54311    -895.2373            0   -883.33225   -5064.9441    13.440161    13.567181    13.463008    2.1271405    3645.1252    51.756341 
 2073000    667.16392   -892.12351            0   -881.08508   -1687.3542    13.440161    13.567181    13.463008     2.199019    3646.9499    49.907576 
 2074000    785.51368   -892.10882            0   -879.11227     -2587.59    13.440161    13.567181    13.463008    2.7579451    3648.7763    48.058857 
 2075000    844.98445   -894.73618            0   -880.75566   -3245.2374    13.440161    13.567181    13.463008    2.0491369    3650.6058      46.2102 
 2076000    772.25068   -894.15974            0   -881.38262   -3811.5831    13.440161    13.567181    13.463008    1.9513409    3652.4318     44.36152 
 2077000    861.01968   -893.37764            0   -879.13181   -2906.9639    13.440161    13.567181    13.463008    2.4353059     3654.258    42.512865 
 2078000    767.51111   -893.39657            0   -880.69787   -2454.4846    13.440161    13.567181    13.463008    2.5193515    3656.0892    40.664288 
 2079000    716.17772   -895.61114            0   -883.76176   -6577.8194    13.440161    13.567181    13.463008    2.0153336    3657.9178    38.815701 
 2080000    717.10101    -892.4388            0   -880.57415    -4403.168    13.440161    13.567181    13.463008    3.8186014    3659.7603    36.967275 
 2081000    826.36709   -893.03783            0   -879.36534   -4146.7284    13.440161    13.567181    13.463008    1.9980769    3661.5883    35.118716 
 2082000      689.763   -893.46176            0   -882.04942   -4595.9341    13.440161    13.567181    13.463008    3.4137763    3663.4156    33.270172 
 2083000    861.77948   -893.87807            0   -879.61967   -6378.6973    13.440161    13.567181    13.463008     2.476061    3665.2424    31.421645 
 2084000    821.79163   -893.39002            0   -879.79323   -329.93943    13.440161    13.567181    13.463008    2.6566459     3667.077    29.573202 
 2085000    760.28718   -894.31009            0   -881.73091   -6761.3275    13.440161    13.567181    13.463008    1.6013796    3668.9051    27.724724 
 2086000    838.54376    -891.9406            0   -878.06664   -2506.6986    13.440161    13.567181    13.463008    3.7373345     3670.736    25.876286 
 2087000    785.28648   -893.60481            0   -880.61201   -4571.1308    13.440161    13.567181    13.463008     2.138937    3672.5614     24.02783 
 2088000    798.20046   -893.90897            0   -880.70251   -8079.8594    13.440161    13.567181    13.463008    1.9981225    3674.3876    22.179402 
 2089000    812.76043   -891.78154            0   -878.33417   -2591.5894    13.440161    13.567181    13.463008    2.5725313    3676.2126    20.330989 
 2090000    889.79246   -893.29413            0   -878.57225   -2771.4827    13.440161    13.567181    13.463008    2.4696529    3678.0423    18.482625 
 2091000    718.92596   -893.07687            0   -881.18202   -5295.7146    13.440161    13.567181    13.463008    2.7624872    3679.8852    16.634338 
 2092000     837.8232   -893.83947            0   -879.97744   -2161.5643    13.440161    13.567181    13.463008    2.4213384    3681.7074    14.785974 
 2093000    821.03919   -892.17171            0   -878.58737   -4017.0589    13.440161    13.567181    13.463008    2.2778028    3683.5453     12.93769 
 2094000    824.46262    -895.2221            0   -881.58112   -3746.9264    13.440161    13.567181    13.463008    1.9805433     3685.371    11.089381 
 2095000    803.62814   -892.65873            0   -879.36246   -2795.2154    13.440161    13.567181    13.463008    2.3502726    3687.2043    9.2411135 
 2096000    754.74071   -893.23125            0   -880.74384   -5116.3302    13.440161    13.567181    13.463008     2.820941    3689.0308    7.3928472 
 2097000    778.39012   -894.66048            0   -881.78178   -4306.0506    13.440161    13.567181    13.463008    2.2962695    3690.8747     5.544629 
 2098000    825.24829   -892.98419            0   -879.33021   -2465.1576    13.440161    13.567181    13.463008    2.3142861    3692.7012    3.6963976 
 2099000    854.67555    -894.4795            0   -880.33864   -4033.5719    13.440161    13.567181    13.463008     1.974882    3694.5267    1.8481874 
 2100000    819.58969   -894.13727            0   -880.57692   -5084.0095    13.440161    13.567181    13.463008    1.7743162    3696.3521            0 
Loop time of 3696.35 on 1 procs for 2000000 steps with 129 atoms

Performance: 46.749 ns/day, 0.513 hours/ns, 541.074 timesteps/s
99.9% CPU use with 1 MPI tasks x no OpenMP threads

MPI task timing breakdown:
Section |  min time  |  avg time  |  max time  |%varavg| %total
---------------------------------------------------------------
Pair    | 2454.3     | 2454.3     | 2454.3     |   0.0 | 66.40
Kspace  | 1167.3     | 1167.3     | 1167.3     |   0.0 | 31.58
Neigh   | 29.798     | 29.798     | 29.798     |   0.0 |  0.81
Comm    | 32.083     | 32.083     | 32.083     |   0.0 |  0.87
Output  | 0.61433    | 0.61433    | 0.61433    |   0.0 |  0.02
Modify  | 5.9154     | 5.9154     | 5.9154     |   0.0 |  0.16
Other   |            | 6.275      |            |       |  0.17

Nlocal:        129.000 ave         129 max         129 min
Histogram: 1 0 0 0 0 0 0 0 0 0
Nghost:        3766.00 ave        3766 max        3766 min
Histogram: 1 0 0 0 0 0 0 0 0 0
Neighs:        38926.0 ave       38926 max       38926 min
Histogram: 1 0 0 0 0 0 0 0 0 0

Total # of neighbors = 38926
Ave neighs/atom = 301.75194
Neighbor list builds = 28624
Dangerous builds = 0

# Final Commands
variable final_energy equal etotal
print "final_energy: ${final_energy}"
final_energy: -880.576918192577
print "END_OF_COMP"
END_OF_COMP
Total wall time: 1:05:16
